** Input file generated by kanapy
** Nodal coordinates scale in mm
*HEADING
*PREPRINT,ECHO=NO,HISTORY=NO,MODEL=NO,CONTACT=NO
**
** PARTS
**
*Part, name=PART-1
*Node
1, 0.0013333333333333333, 0.0, 0.0013333333333333333
2, 0.0013333333333333333, 0.0, 0.0
3, 0.0, 0.0, 0.0
4, 0.0, 0.0, 0.0013333333333333333
5, 0.0013333333333333333, 0.0013333333333333333, 0.0013333333333333333
6, 0.0013333333333333333, 0.0013333333333333333, 0.0
7, 0.0, 0.0013333333333333333, 0.0
8, 0.0, 0.0013333333333333333, 0.0013333333333333333
9, 0.0013333333333333333, 0.0, 0.0026666666666666666
10, 0.0, 0.0, 0.0026666666666666666
11, 0.0013333333333333333, 0.0013333333333333333, 0.0026666666666666666
12, 0.0, 0.0013333333333333333, 0.0026666666666666666
13, 0.0013333333333333333, 0.0, 0.004
14, 0.0, 0.0, 0.004
15, 0.0013333333333333333, 0.0013333333333333333, 0.004
16, 0.0, 0.0013333333333333333, 0.004
17, 0.0013333333333333333, 0.0, 0.005333333333333333
18, 0.0, 0.0, 0.005333333333333333
19, 0.0013333333333333333, 0.0013333333333333333, 0.005333333333333333
20, 0.0, 0.0013333333333333333, 0.005333333333333333
21, 0.0013333333333333333, 0.0, 0.006666666666666666
22, 0.0, 0.0, 0.006666666666666666
23, 0.0013333333333333333, 0.0013333333333333333, 0.006666666666666666
24, 0.0, 0.0013333333333333333, 0.006666666666666666
25, 0.0013333333333333333, 0.0, 0.008
26, 0.0, 0.0, 0.008
27, 0.0013333333333333333, 0.0013333333333333333, 0.008
28, 0.0, 0.0013333333333333333, 0.008
29, 0.0013333333333333333, 0.0, 0.009333333333333332
30, 0.0, 0.0, 0.009333333333333332
31, 0.0013333333333333333, 0.0013333333333333333, 0.009333333333333332
32, 0.0, 0.0013333333333333333, 0.009333333333333332
33, 0.0013333333333333333, 0.0, 0.010666666666666666
34, 0.0, 0.0, 0.010666666666666666
35, 0.0013333333333333333, 0.0013333333333333333, 0.010666666666666666
36, 0.0, 0.0013333333333333333, 0.010666666666666666
37, 0.0013333333333333333, 0.0, 0.012
38, 0.0, 0.0, 0.012
39, 0.0013333333333333333, 0.0013333333333333333, 0.012
40, 0.0, 0.0013333333333333333, 0.012
41, 0.0013333333333333333, 0.0, 0.013333333333333332
42, 0.0, 0.0, 0.013333333333333332
43, 0.0013333333333333333, 0.0013333333333333333, 0.013333333333333332
44, 0.0, 0.0013333333333333333, 0.013333333333333332
45, 0.0013333333333333333, 0.0, 0.014666666666666666
46, 0.0, 0.0, 0.014666666666666666
47, 0.0013333333333333333, 0.0013333333333333333, 0.014666666666666666
48, 0.0, 0.0013333333333333333, 0.014666666666666666
49, 0.0013333333333333333, 0.0, 0.016
50, 0.0, 0.0, 0.016
51, 0.0013333333333333333, 0.0013333333333333333, 0.016
52, 0.0, 0.0013333333333333333, 0.016
53, 0.0013333333333333333, 0.0, 0.017333333333333333
54, 0.0, 0.0, 0.017333333333333333
55, 0.0013333333333333333, 0.0013333333333333333, 0.017333333333333333
56, 0.0, 0.0013333333333333333, 0.017333333333333333
57, 0.0013333333333333333, 0.0, 0.018666666666666665
58, 0.0, 0.0, 0.018666666666666665
59, 0.0013333333333333333, 0.0013333333333333333, 0.018666666666666665
60, 0.0, 0.0013333333333333333, 0.018666666666666665
61, 0.0013333333333333333, 0.0, 0.02
62, 0.0, 0.0, 0.02
63, 0.0013333333333333333, 0.0013333333333333333, 0.02
64, 0.0, 0.0013333333333333333, 0.02
65, 0.0013333333333333333, 0.0026666666666666666, 0.0013333333333333333
66, 0.0013333333333333333, 0.0026666666666666666, 0.0
67, 0.0, 0.0026666666666666666, 0.0
68, 0.0, 0.0026666666666666666, 0.0013333333333333333
69, 0.0013333333333333333, 0.0026666666666666666, 0.0026666666666666666
70, 0.0, 0.0026666666666666666, 0.0026666666666666666
71, 0.0013333333333333333, 0.0026666666666666666, 0.004
72, 0.0, 0.0026666666666666666, 0.004
73, 0.0013333333333333333, 0.0026666666666666666, 0.005333333333333333
74, 0.0, 0.0026666666666666666, 0.005333333333333333
75, 0.0013333333333333333, 0.0026666666666666666, 0.006666666666666666
76, 0.0, 0.0026666666666666666, 0.006666666666666666
77, 0.0013333333333333333, 0.0026666666666666666, 0.008
78, 0.0, 0.0026666666666666666, 0.008
79, 0.0013333333333333333, 0.0026666666666666666, 0.009333333333333332
80, 0.0, 0.0026666666666666666, 0.009333333333333332
81, 0.0013333333333333333, 0.0026666666666666666, 0.010666666666666666
82, 0.0, 0.0026666666666666666, 0.010666666666666666
83, 0.0013333333333333333, 0.0026666666666666666, 0.012
84, 0.0, 0.0026666666666666666, 0.012
85, 0.0013333333333333333, 0.0026666666666666666, 0.013333333333333332
86, 0.0, 0.0026666666666666666, 0.013333333333333332
87, 0.0013333333333333333, 0.0026666666666666666, 0.014666666666666666
88, 0.0, 0.0026666666666666666, 0.014666666666666666
89, 0.0013333333333333333, 0.0026666666666666666, 0.016
90, 0.0, 0.0026666666666666666, 0.016
91, 0.0013333333333333333, 0.0026666666666666666, 0.017333333333333333
92, 0.0, 0.0026666666666666666, 0.017333333333333333
93, 0.0013333333333333333, 0.0026666666666666666, 0.018666666666666665
94, 0.0, 0.0026666666666666666, 0.018666666666666665
95, 0.0013333333333333333, 0.0026666666666666666, 0.02
96, 0.0, 0.0026666666666666666, 0.02
97, 0.0013333333333333333, 0.004, 0.0013333333333333333
98, 0.0013333333333333333, 0.004, 0.0
99, 0.0, 0.004, 0.0
100, 0.0, 0.004, 0.0013333333333333333
101, 0.0013333333333333333, 0.004, 0.0026666666666666666
102, 0.0, 0.004, 0.0026666666666666666
103, 0.0013333333333333333, 0.004, 0.004
104, 0.0, 0.004, 0.004
105, 0.0013333333333333333, 0.004, 0.005333333333333333
106, 0.0, 0.004, 0.005333333333333333
107, 0.0013333333333333333, 0.004, 0.006666666666666666
108, 0.0, 0.004, 0.006666666666666666
109, 0.0013333333333333333, 0.004, 0.008
110, 0.0, 0.004, 0.008
111, 0.0013333333333333333, 0.004, 0.009333333333333332
112, 0.0, 0.004, 0.009333333333333332
113, 0.0013333333333333333, 0.004, 0.010666666666666666
114, 0.0, 0.004, 0.010666666666666666
115, 0.0013333333333333333, 0.004, 0.012
116, 0.0, 0.004, 0.012
117, 0.0013333333333333333, 0.004, 0.013333333333333332
118, 0.0, 0.004, 0.013333333333333332
119, 0.0013333333333333333, 0.004, 0.014666666666666666
120, 0.0, 0.004, 0.014666666666666666
121, 0.0013333333333333333, 0.004, 0.016
122, 0.0, 0.004, 0.016
123, 0.0013333333333333333, 0.004, 0.017333333333333333
124, 0.0, 0.004, 0.017333333333333333
125, 0.0013333333333333333, 0.004, 0.018666666666666665
126, 0.0, 0.004, 0.018666666666666665
127, 0.0013333333333333333, 0.004, 0.02
128, 0.0, 0.004, 0.02
129, 0.0013333333333333333, 0.005333333333333333, 0.0013333333333333333
130, 0.0013333333333333333, 0.005333333333333333, 0.0
131, 0.0, 0.005333333333333333, 0.0
132, 0.0, 0.005333333333333333, 0.0013333333333333333
133, 0.0013333333333333333, 0.005333333333333333, 0.0026666666666666666
134, 0.0, 0.005333333333333333, 0.0026666666666666666
135, 0.0013333333333333333, 0.005333333333333333, 0.004
136, 0.0, 0.005333333333333333, 0.004
137, 0.0013333333333333333, 0.005333333333333333, 0.005333333333333333
138, 0.0, 0.005333333333333333, 0.005333333333333333
139, 0.0013333333333333333, 0.005333333333333333, 0.006666666666666666
140, 0.0, 0.005333333333333333, 0.006666666666666666
141, 0.0013333333333333333, 0.005333333333333333, 0.008
142, 0.0, 0.005333333333333333, 0.008
143, 0.0013333333333333333, 0.005333333333333333, 0.009333333333333332
144, 0.0, 0.005333333333333333, 0.009333333333333332
145, 0.0013333333333333333, 0.005333333333333333, 0.010666666666666666
146, 0.0, 0.005333333333333333, 0.010666666666666666
147, 0.0013333333333333333, 0.005333333333333333, 0.012
148, 0.0, 0.005333333333333333, 0.012
149, 0.0013333333333333333, 0.005333333333333333, 0.013333333333333332
150, 0.0, 0.005333333333333333, 0.013333333333333332
151, 0.0013333333333333333, 0.005333333333333333, 0.014666666666666666
152, 0.0, 0.005333333333333333, 0.014666666666666666
153, 0.0013333333333333333, 0.005333333333333333, 0.016
154, 0.0, 0.005333333333333333, 0.016
155, 0.0013333333333333333, 0.005333333333333333, 0.017333333333333333
156, 0.0, 0.005333333333333333, 0.017333333333333333
157, 0.0013333333333333333, 0.005333333333333333, 0.018666666666666665
158, 0.0, 0.005333333333333333, 0.018666666666666665
159, 0.0013333333333333333, 0.005333333333333333, 0.02
160, 0.0, 0.005333333333333333, 0.02
161, 0.0013333333333333333, 0.006666666666666666, 0.0013333333333333333
162, 0.0013333333333333333, 0.006666666666666666, 0.0
163, 0.0, 0.006666666666666666, 0.0
164, 0.0, 0.006666666666666666, 0.0013333333333333333
165, 0.0013333333333333333, 0.006666666666666666, 0.0026666666666666666
166, 0.0, 0.006666666666666666, 0.0026666666666666666
167, 0.0013333333333333333, 0.006666666666666666, 0.004
168, 0.0, 0.006666666666666666, 0.004
169, 0.0013333333333333333, 0.006666666666666666, 0.005333333333333333
170, 0.0, 0.006666666666666666, 0.005333333333333333
171, 0.0013333333333333333, 0.006666666666666666, 0.006666666666666666
172, 0.0, 0.006666666666666666, 0.006666666666666666
173, 0.0013333333333333333, 0.006666666666666666, 0.008
174, 0.0, 0.006666666666666666, 0.008
175, 0.0013333333333333333, 0.006666666666666666, 0.009333333333333332
176, 0.0, 0.006666666666666666, 0.009333333333333332
177, 0.0013333333333333333, 0.006666666666666666, 0.010666666666666666
178, 0.0, 0.006666666666666666, 0.010666666666666666
179, 0.0013333333333333333, 0.006666666666666666, 0.012
180, 0.0, 0.006666666666666666, 0.012
181, 0.0013333333333333333, 0.006666666666666666, 0.013333333333333332
182, 0.0, 0.006666666666666666, 0.013333333333333332
183, 0.0013333333333333333, 0.006666666666666666, 0.014666666666666666
184, 0.0, 0.006666666666666666, 0.014666666666666666
185, 0.0013333333333333333, 0.006666666666666666, 0.016
186, 0.0, 0.006666666666666666, 0.016
187, 0.0013333333333333333, 0.006666666666666666, 0.017333333333333333
188, 0.0, 0.006666666666666666, 0.017333333333333333
189, 0.0013333333333333333, 0.006666666666666666, 0.018666666666666665
190, 0.0, 0.006666666666666666, 0.018666666666666665
191, 0.0013333333333333333, 0.006666666666666666, 0.02
192, 0.0, 0.006666666666666666, 0.02
193, 0.0013333333333333333, 0.008, 0.0013333333333333333
194, 0.0013333333333333333, 0.008, 0.0
195, 0.0, 0.008, 0.0
196, 0.0, 0.008, 0.0013333333333333333
197, 0.0013333333333333333, 0.008, 0.0026666666666666666
198, 0.0, 0.008, 0.0026666666666666666
199, 0.0013333333333333333, 0.008, 0.004
200, 0.0, 0.008, 0.004
201, 0.0013333333333333333, 0.008, 0.005333333333333333
202, 0.0, 0.008, 0.005333333333333333
203, 0.0013333333333333333, 0.008, 0.006666666666666666
204, 0.0, 0.008, 0.006666666666666666
205, 0.0013333333333333333, 0.008, 0.008
206, 0.0, 0.008, 0.008
207, 0.0013333333333333333, 0.008, 0.009333333333333332
208, 0.0, 0.008, 0.009333333333333332
209, 0.0013333333333333333, 0.008, 0.010666666666666666
210, 0.0, 0.008, 0.010666666666666666
211, 0.0013333333333333333, 0.008, 0.012
212, 0.0, 0.008, 0.012
213, 0.0013333333333333333, 0.008, 0.013333333333333332
214, 0.0, 0.008, 0.013333333333333332
215, 0.0013333333333333333, 0.008, 0.014666666666666666
216, 0.0, 0.008, 0.014666666666666666
217, 0.0013333333333333333, 0.008, 0.016
218, 0.0, 0.008, 0.016
219, 0.0013333333333333333, 0.008, 0.017333333333333333
220, 0.0, 0.008, 0.017333333333333333
221, 0.0013333333333333333, 0.008, 0.018666666666666665
222, 0.0, 0.008, 0.018666666666666665
223, 0.0013333333333333333, 0.008, 0.02
224, 0.0, 0.008, 0.02
225, 0.0013333333333333333, 0.009333333333333332, 0.0013333333333333333
226, 0.0013333333333333333, 0.009333333333333332, 0.0
227, 0.0, 0.009333333333333332, 0.0
228, 0.0, 0.009333333333333332, 0.0013333333333333333
229, 0.0013333333333333333, 0.009333333333333332, 0.0026666666666666666
230, 0.0, 0.009333333333333332, 0.0026666666666666666
231, 0.0013333333333333333, 0.009333333333333332, 0.004
232, 0.0, 0.009333333333333332, 0.004
233, 0.0013333333333333333, 0.009333333333333332, 0.005333333333333333
234, 0.0, 0.009333333333333332, 0.005333333333333333
235, 0.0013333333333333333, 0.009333333333333332, 0.006666666666666666
236, 0.0, 0.009333333333333332, 0.006666666666666666
237, 0.0013333333333333333, 0.009333333333333332, 0.008
238, 0.0, 0.009333333333333332, 0.008
239, 0.0013333333333333333, 0.009333333333333332, 0.009333333333333332
240, 0.0, 0.009333333333333332, 0.009333333333333332
241, 0.0013333333333333333, 0.009333333333333332, 0.010666666666666666
242, 0.0, 0.009333333333333332, 0.010666666666666666
243, 0.0013333333333333333, 0.009333333333333332, 0.012
244, 0.0, 0.009333333333333332, 0.012
245, 0.0013333333333333333, 0.009333333333333332, 0.013333333333333332
246, 0.0, 0.009333333333333332, 0.013333333333333332
247, 0.0013333333333333333, 0.009333333333333332, 0.014666666666666666
248, 0.0, 0.009333333333333332, 0.014666666666666666
249, 0.0013333333333333333, 0.009333333333333332, 0.016
250, 0.0, 0.009333333333333332, 0.016
251, 0.0013333333333333333, 0.009333333333333332, 0.017333333333333333
252, 0.0, 0.009333333333333332, 0.017333333333333333
253, 0.0013333333333333333, 0.009333333333333332, 0.018666666666666665
254, 0.0, 0.009333333333333332, 0.018666666666666665
255, 0.0013333333333333333, 0.009333333333333332, 0.02
256, 0.0, 0.009333333333333332, 0.02
257, 0.0013333333333333333, 0.010666666666666666, 0.0013333333333333333
258, 0.0013333333333333333, 0.010666666666666666, 0.0
259, 0.0, 0.010666666666666666, 0.0
260, 0.0, 0.010666666666666666, 0.0013333333333333333
261, 0.0013333333333333333, 0.010666666666666666, 0.0026666666666666666
262, 0.0, 0.010666666666666666, 0.0026666666666666666
263, 0.0013333333333333333, 0.010666666666666666, 0.004
264, 0.0, 0.010666666666666666, 0.004
265, 0.0013333333333333333, 0.010666666666666666, 0.005333333333333333
266, 0.0, 0.010666666666666666, 0.005333333333333333
267, 0.0013333333333333333, 0.010666666666666666, 0.006666666666666666
268, 0.0, 0.010666666666666666, 0.006666666666666666
269, 0.0013333333333333333, 0.010666666666666666, 0.008
270, 0.0, 0.010666666666666666, 0.008
271, 0.0013333333333333333, 0.010666666666666666, 0.009333333333333332
272, 0.0, 0.010666666666666666, 0.009333333333333332
273, 0.0013333333333333333, 0.010666666666666666, 0.010666666666666666
274, 0.0, 0.010666666666666666, 0.010666666666666666
275, 0.0013333333333333333, 0.010666666666666666, 0.012
276, 0.0, 0.010666666666666666, 0.012
277, 0.0013333333333333333, 0.010666666666666666, 0.013333333333333332
278, 0.0, 0.010666666666666666, 0.013333333333333332
279, 0.0013333333333333333, 0.010666666666666666, 0.014666666666666666
280, 0.0, 0.010666666666666666, 0.014666666666666666
281, 0.0013333333333333333, 0.010666666666666666, 0.016
282, 0.0, 0.010666666666666666, 0.016
283, 0.0013333333333333333, 0.010666666666666666, 0.017333333333333333
284, 0.0, 0.010666666666666666, 0.017333333333333333
285, 0.0013333333333333333, 0.010666666666666666, 0.018666666666666665
286, 0.0, 0.010666666666666666, 0.018666666666666665
287, 0.0013333333333333333, 0.010666666666666666, 0.02
288, 0.0, 0.010666666666666666, 0.02
289, 0.0013333333333333333, 0.012, 0.0013333333333333333
290, 0.0013333333333333333, 0.012, 0.0
291, 0.0, 0.012, 0.0
292, 0.0, 0.012, 0.0013333333333333333
293, 0.0013333333333333333, 0.012, 0.0026666666666666666
294, 0.0, 0.012, 0.0026666666666666666
295, 0.0013333333333333333, 0.012, 0.004
296, 0.0, 0.012, 0.004
297, 0.0013333333333333333, 0.012, 0.005333333333333333
298, 0.0, 0.012, 0.005333333333333333
299, 0.0013333333333333333, 0.012, 0.006666666666666666
300, 0.0, 0.012, 0.006666666666666666
301, 0.0013333333333333333, 0.012, 0.008
302, 0.0, 0.012, 0.008
303, 0.0013333333333333333, 0.012, 0.009333333333333332
304, 0.0, 0.012, 0.009333333333333332
305, 0.0013333333333333333, 0.012, 0.010666666666666666
306, 0.0, 0.012, 0.010666666666666666
307, 0.0013333333333333333, 0.012, 0.012
308, 0.0, 0.012, 0.012
309, 0.0013333333333333333, 0.012, 0.013333333333333332
310, 0.0, 0.012, 0.013333333333333332
311, 0.0013333333333333333, 0.012, 0.014666666666666666
312, 0.0, 0.012, 0.014666666666666666
313, 0.0013333333333333333, 0.012, 0.016
314, 0.0, 0.012, 0.016
315, 0.0013333333333333333, 0.012, 0.017333333333333333
316, 0.0, 0.012, 0.017333333333333333
317, 0.0013333333333333333, 0.012, 0.018666666666666665
318, 0.0, 0.012, 0.018666666666666665
319, 0.0013333333333333333, 0.012, 0.02
320, 0.0, 0.012, 0.02
321, 0.0013333333333333333, 0.013333333333333332, 0.0013333333333333333
322, 0.0013333333333333333, 0.013333333333333332, 0.0
323, 0.0, 0.013333333333333332, 0.0
324, 0.0, 0.013333333333333332, 0.0013333333333333333
325, 0.0013333333333333333, 0.013333333333333332, 0.0026666666666666666
326, 0.0, 0.013333333333333332, 0.0026666666666666666
327, 0.0013333333333333333, 0.013333333333333332, 0.004
328, 0.0, 0.013333333333333332, 0.004
329, 0.0013333333333333333, 0.013333333333333332, 0.005333333333333333
330, 0.0, 0.013333333333333332, 0.005333333333333333
331, 0.0013333333333333333, 0.013333333333333332, 0.006666666666666666
332, 0.0, 0.013333333333333332, 0.006666666666666666
333, 0.0013333333333333333, 0.013333333333333332, 0.008
334, 0.0, 0.013333333333333332, 0.008
335, 0.0013333333333333333, 0.013333333333333332, 0.009333333333333332
336, 0.0, 0.013333333333333332, 0.009333333333333332
337, 0.0013333333333333333, 0.013333333333333332, 0.010666666666666666
338, 0.0, 0.013333333333333332, 0.010666666666666666
339, 0.0013333333333333333, 0.013333333333333332, 0.012
340, 0.0, 0.013333333333333332, 0.012
341, 0.0013333333333333333, 0.013333333333333332, 0.013333333333333332
342, 0.0, 0.013333333333333332, 0.013333333333333332
343, 0.0013333333333333333, 0.013333333333333332, 0.014666666666666666
344, 0.0, 0.013333333333333332, 0.014666666666666666
345, 0.0013333333333333333, 0.013333333333333332, 0.016
346, 0.0, 0.013333333333333332, 0.016
347, 0.0013333333333333333, 0.013333333333333332, 0.017333333333333333
348, 0.0, 0.013333333333333332, 0.017333333333333333
349, 0.0013333333333333333, 0.013333333333333332, 0.018666666666666665
350, 0.0, 0.013333333333333332, 0.018666666666666665
351, 0.0013333333333333333, 0.013333333333333332, 0.02
352, 0.0, 0.013333333333333332, 0.02
353, 0.0013333333333333333, 0.014666666666666666, 0.0013333333333333333
354, 0.0013333333333333333, 0.014666666666666666, 0.0
355, 0.0, 0.014666666666666666, 0.0
356, 0.0, 0.014666666666666666, 0.0013333333333333333
357, 0.0013333333333333333, 0.014666666666666666, 0.0026666666666666666
358, 0.0, 0.014666666666666666, 0.0026666666666666666
359, 0.0013333333333333333, 0.014666666666666666, 0.004
360, 0.0, 0.014666666666666666, 0.004
361, 0.0013333333333333333, 0.014666666666666666, 0.005333333333333333
362, 0.0, 0.014666666666666666, 0.005333333333333333
363, 0.0013333333333333333, 0.014666666666666666, 0.006666666666666666
364, 0.0, 0.014666666666666666, 0.006666666666666666
365, 0.0013333333333333333, 0.014666666666666666, 0.008
366, 0.0, 0.014666666666666666, 0.008
367, 0.0013333333333333333, 0.014666666666666666, 0.009333333333333332
368, 0.0, 0.014666666666666666, 0.009333333333333332
369, 0.0013333333333333333, 0.014666666666666666, 0.010666666666666666
370, 0.0, 0.014666666666666666, 0.010666666666666666
371, 0.0013333333333333333, 0.014666666666666666, 0.012
372, 0.0, 0.014666666666666666, 0.012
373, 0.0013333333333333333, 0.014666666666666666, 0.013333333333333332
374, 0.0, 0.014666666666666666, 0.013333333333333332
375, 0.0013333333333333333, 0.014666666666666666, 0.014666666666666666
376, 0.0, 0.014666666666666666, 0.014666666666666666
377, 0.0013333333333333333, 0.014666666666666666, 0.016
378, 0.0, 0.014666666666666666, 0.016
379, 0.0013333333333333333, 0.014666666666666666, 0.017333333333333333
380, 0.0, 0.014666666666666666, 0.017333333333333333
381, 0.0013333333333333333, 0.014666666666666666, 0.018666666666666665
382, 0.0, 0.014666666666666666, 0.018666666666666665
383, 0.0013333333333333333, 0.014666666666666666, 0.02
384, 0.0, 0.014666666666666666, 0.02
385, 0.0013333333333333333, 0.016, 0.0013333333333333333
386, 0.0013333333333333333, 0.016, 0.0
387, 0.0, 0.016, 0.0
388, 0.0, 0.016, 0.0013333333333333333
389, 0.0013333333333333333, 0.016, 0.0026666666666666666
390, 0.0, 0.016, 0.0026666666666666666
391, 0.0013333333333333333, 0.016, 0.004
392, 0.0, 0.016, 0.004
393, 0.0013333333333333333, 0.016, 0.005333333333333333
394, 0.0, 0.016, 0.005333333333333333
395, 0.0013333333333333333, 0.016, 0.006666666666666666
396, 0.0, 0.016, 0.006666666666666666
397, 0.0013333333333333333, 0.016, 0.008
398, 0.0, 0.016, 0.008
399, 0.0013333333333333333, 0.016, 0.009333333333333332
400, 0.0, 0.016, 0.009333333333333332
401, 0.0013333333333333333, 0.016, 0.010666666666666666
402, 0.0, 0.016, 0.010666666666666666
403, 0.0013333333333333333, 0.016, 0.012
404, 0.0, 0.016, 0.012
405, 0.0013333333333333333, 0.016, 0.013333333333333332
406, 0.0, 0.016, 0.013333333333333332
407, 0.0013333333333333333, 0.016, 0.014666666666666666
408, 0.0, 0.016, 0.014666666666666666
409, 0.0013333333333333333, 0.016, 0.016
410, 0.0, 0.016, 0.016
411, 0.0013333333333333333, 0.016, 0.017333333333333333
412, 0.0, 0.016, 0.017333333333333333
413, 0.0013333333333333333, 0.016, 0.018666666666666665
414, 0.0, 0.016, 0.018666666666666665
415, 0.0013333333333333333, 0.016, 0.02
416, 0.0, 0.016, 0.02
417, 0.0013333333333333333, 0.017333333333333333, 0.0013333333333333333
418, 0.0013333333333333333, 0.017333333333333333, 0.0
419, 0.0, 0.017333333333333333, 0.0
420, 0.0, 0.017333333333333333, 0.0013333333333333333
421, 0.0013333333333333333, 0.017333333333333333, 0.0026666666666666666
422, 0.0, 0.017333333333333333, 0.0026666666666666666
423, 0.0013333333333333333, 0.017333333333333333, 0.004
424, 0.0, 0.017333333333333333, 0.004
425, 0.0013333333333333333, 0.017333333333333333, 0.005333333333333333
426, 0.0, 0.017333333333333333, 0.005333333333333333
427, 0.0013333333333333333, 0.017333333333333333, 0.006666666666666666
428, 0.0, 0.017333333333333333, 0.006666666666666666
429, 0.0013333333333333333, 0.017333333333333333, 0.008
430, 0.0, 0.017333333333333333, 0.008
431, 0.0013333333333333333, 0.017333333333333333, 0.009333333333333332
432, 0.0, 0.017333333333333333, 0.009333333333333332
433, 0.0013333333333333333, 0.017333333333333333, 0.010666666666666666
434, 0.0, 0.017333333333333333, 0.010666666666666666
435, 0.0013333333333333333, 0.017333333333333333, 0.012
436, 0.0, 0.017333333333333333, 0.012
437, 0.0013333333333333333, 0.017333333333333333, 0.013333333333333332
438, 0.0, 0.017333333333333333, 0.013333333333333332
439, 0.0013333333333333333, 0.017333333333333333, 0.014666666666666666
440, 0.0, 0.017333333333333333, 0.014666666666666666
441, 0.0013333333333333333, 0.017333333333333333, 0.016
442, 0.0, 0.017333333333333333, 0.016
443, 0.0013333333333333333, 0.017333333333333333, 0.017333333333333333
444, 0.0, 0.017333333333333333, 0.017333333333333333
445, 0.0013333333333333333, 0.017333333333333333, 0.018666666666666665
446, 0.0, 0.017333333333333333, 0.018666666666666665
447, 0.0013333333333333333, 0.017333333333333333, 0.02
448, 0.0, 0.017333333333333333, 0.02
449, 0.0013333333333333333, 0.018666666666666665, 0.0013333333333333333
450, 0.0013333333333333333, 0.018666666666666665, 0.0
451, 0.0, 0.018666666666666665, 0.0
452, 0.0, 0.018666666666666665, 0.0013333333333333333
453, 0.0013333333333333333, 0.018666666666666665, 0.0026666666666666666
454, 0.0, 0.018666666666666665, 0.0026666666666666666
455, 0.0013333333333333333, 0.018666666666666665, 0.004
456, 0.0, 0.018666666666666665, 0.004
457, 0.0013333333333333333, 0.018666666666666665, 0.005333333333333333
458, 0.0, 0.018666666666666665, 0.005333333333333333
459, 0.0013333333333333333, 0.018666666666666665, 0.006666666666666666
460, 0.0, 0.018666666666666665, 0.006666666666666666
461, 0.0013333333333333333, 0.018666666666666665, 0.008
462, 0.0, 0.018666666666666665, 0.008
463, 0.0013333333333333333, 0.018666666666666665, 0.009333333333333332
464, 0.0, 0.018666666666666665, 0.009333333333333332
465, 0.0013333333333333333, 0.018666666666666665, 0.010666666666666666
466, 0.0, 0.018666666666666665, 0.010666666666666666
467, 0.0013333333333333333, 0.018666666666666665, 0.012
468, 0.0, 0.018666666666666665, 0.012
469, 0.0013333333333333333, 0.018666666666666665, 0.013333333333333332
470, 0.0, 0.018666666666666665, 0.013333333333333332
471, 0.0013333333333333333, 0.018666666666666665, 0.014666666666666666
472, 0.0, 0.018666666666666665, 0.014666666666666666
473, 0.0013333333333333333, 0.018666666666666665, 0.016
474, 0.0, 0.018666666666666665, 0.016
475, 0.0013333333333333333, 0.018666666666666665, 0.017333333333333333
476, 0.0, 0.018666666666666665, 0.017333333333333333
477, 0.0013333333333333333, 0.018666666666666665, 0.018666666666666665
478, 0.0, 0.018666666666666665, 0.018666666666666665
479, 0.0013333333333333333, 0.018666666666666665, 0.02
480, 0.0, 0.018666666666666665, 0.02
481, 0.0013333333333333333, 0.02, 0.0013333333333333333
482, 0.0013333333333333333, 0.02, 0.0
483, 0.0, 0.02, 0.0
484, 0.0, 0.02, 0.0013333333333333333
485, 0.0013333333333333333, 0.02, 0.0026666666666666666
486, 0.0, 0.02, 0.0026666666666666666
487, 0.0013333333333333333, 0.02, 0.004
488, 0.0, 0.02, 0.004
489, 0.0013333333333333333, 0.02, 0.005333333333333333
490, 0.0, 0.02, 0.005333333333333333
491, 0.0013333333333333333, 0.02, 0.006666666666666666
492, 0.0, 0.02, 0.006666666666666666
493, 0.0013333333333333333, 0.02, 0.008
494, 0.0, 0.02, 0.008
495, 0.0013333333333333333, 0.02, 0.009333333333333332
496, 0.0, 0.02, 0.009333333333333332
497, 0.0013333333333333333, 0.02, 0.010666666666666666
498, 0.0, 0.02, 0.010666666666666666
499, 0.0013333333333333333, 0.02, 0.012
500, 0.0, 0.02, 0.012
501, 0.0013333333333333333, 0.02, 0.013333333333333332
502, 0.0, 0.02, 0.013333333333333332
503, 0.0013333333333333333, 0.02, 0.014666666666666666
504, 0.0, 0.02, 0.014666666666666666
505, 0.0013333333333333333, 0.02, 0.016
506, 0.0, 0.02, 0.016
507, 0.0013333333333333333, 0.02, 0.017333333333333333
508, 0.0, 0.02, 0.017333333333333333
509, 0.0013333333333333333, 0.02, 0.018666666666666665
510, 0.0, 0.02, 0.018666666666666665
511, 0.0013333333333333333, 0.02, 0.02
512, 0.0, 0.02, 0.02
513, 0.0026666666666666666, 0.0, 0.0013333333333333333
514, 0.0026666666666666666, 0.0, 0.0
515, 0.0026666666666666666, 0.0013333333333333333, 0.0013333333333333333
516, 0.0026666666666666666, 0.0013333333333333333, 0.0
517, 0.0026666666666666666, 0.0, 0.0026666666666666666
518, 0.0026666666666666666, 0.0013333333333333333, 0.0026666666666666666
519, 0.0026666666666666666, 0.0, 0.004
520, 0.0026666666666666666, 0.0013333333333333333, 0.004
521, 0.0026666666666666666, 0.0, 0.005333333333333333
522, 0.0026666666666666666, 0.0013333333333333333, 0.005333333333333333
523, 0.0026666666666666666, 0.0, 0.006666666666666666
524, 0.0026666666666666666, 0.0013333333333333333, 0.006666666666666666
525, 0.0026666666666666666, 0.0, 0.008
526, 0.0026666666666666666, 0.0013333333333333333, 0.008
527, 0.0026666666666666666, 0.0, 0.009333333333333332
528, 0.0026666666666666666, 0.0013333333333333333, 0.009333333333333332
529, 0.0026666666666666666, 0.0, 0.010666666666666666
530, 0.0026666666666666666, 0.0013333333333333333, 0.010666666666666666
531, 0.0026666666666666666, 0.0, 0.012
532, 0.0026666666666666666, 0.0013333333333333333, 0.012
533, 0.0026666666666666666, 0.0, 0.013333333333333332
534, 0.0026666666666666666, 0.0013333333333333333, 0.013333333333333332
535, 0.0026666666666666666, 0.0, 0.014666666666666666
536, 0.0026666666666666666, 0.0013333333333333333, 0.014666666666666666
537, 0.0026666666666666666, 0.0, 0.016
538, 0.0026666666666666666, 0.0013333333333333333, 0.016
539, 0.0026666666666666666, 0.0, 0.017333333333333333
540, 0.0026666666666666666, 0.0013333333333333333, 0.017333333333333333
541, 0.0026666666666666666, 0.0, 0.018666666666666665
542, 0.0026666666666666666, 0.0013333333333333333, 0.018666666666666665
543, 0.0026666666666666666, 0.0, 0.02
544, 0.0026666666666666666, 0.0013333333333333333, 0.02
545, 0.0026666666666666666, 0.0026666666666666666, 0.0013333333333333333
546, 0.0026666666666666666, 0.0026666666666666666, 0.0
547, 0.0026666666666666666, 0.0026666666666666666, 0.0026666666666666666
548, 0.0026666666666666666, 0.0026666666666666666, 0.004
549, 0.0026666666666666666, 0.0026666666666666666, 0.005333333333333333
550, 0.0026666666666666666, 0.0026666666666666666, 0.006666666666666666
551, 0.0026666666666666666, 0.0026666666666666666, 0.008
552, 0.0026666666666666666, 0.0026666666666666666, 0.009333333333333332
553, 0.0026666666666666666, 0.0026666666666666666, 0.010666666666666666
554, 0.0026666666666666666, 0.0026666666666666666, 0.012
555, 0.0026666666666666666, 0.0026666666666666666, 0.013333333333333332
556, 0.0026666666666666666, 0.0026666666666666666, 0.014666666666666666
557, 0.0026666666666666666, 0.0026666666666666666, 0.016
558, 0.0026666666666666666, 0.0026666666666666666, 0.017333333333333333
559, 0.0026666666666666666, 0.0026666666666666666, 0.018666666666666665
560, 0.0026666666666666666, 0.0026666666666666666, 0.02
561, 0.0026666666666666666, 0.004, 0.0013333333333333333
562, 0.0026666666666666666, 0.004, 0.0
563, 0.0026666666666666666, 0.004, 0.0026666666666666666
564, 0.0026666666666666666, 0.004, 0.004
565, 0.0026666666666666666, 0.004, 0.005333333333333333
566, 0.0026666666666666666, 0.004, 0.006666666666666666
567, 0.0026666666666666666, 0.004, 0.008
568, 0.0026666666666666666, 0.004, 0.009333333333333332
569, 0.0026666666666666666, 0.004, 0.010666666666666666
570, 0.0026666666666666666, 0.004, 0.012
571, 0.0026666666666666666, 0.004, 0.013333333333333332
572, 0.0026666666666666666, 0.004, 0.014666666666666666
573, 0.0026666666666666666, 0.004, 0.016
574, 0.0026666666666666666, 0.004, 0.017333333333333333
575, 0.0026666666666666666, 0.004, 0.018666666666666665
576, 0.0026666666666666666, 0.004, 0.02
577, 0.0026666666666666666, 0.005333333333333333, 0.0013333333333333333
578, 0.0026666666666666666, 0.005333333333333333, 0.0
579, 0.0026666666666666666, 0.005333333333333333, 0.0026666666666666666
580, 0.0026666666666666666, 0.005333333333333333, 0.004
581, 0.0026666666666666666, 0.005333333333333333, 0.005333333333333333
582, 0.0026666666666666666, 0.005333333333333333, 0.006666666666666666
583, 0.0026666666666666666, 0.005333333333333333, 0.008
584, 0.0026666666666666666, 0.005333333333333333, 0.009333333333333332
585, 0.0026666666666666666, 0.005333333333333333, 0.010666666666666666
586, 0.0026666666666666666, 0.005333333333333333, 0.012
587, 0.0026666666666666666, 0.005333333333333333, 0.013333333333333332
588, 0.0026666666666666666, 0.005333333333333333, 0.014666666666666666
589, 0.0026666666666666666, 0.005333333333333333, 0.016
590, 0.0026666666666666666, 0.005333333333333333, 0.017333333333333333
591, 0.0026666666666666666, 0.005333333333333333, 0.018666666666666665
592, 0.0026666666666666666, 0.005333333333333333, 0.02
593, 0.0026666666666666666, 0.006666666666666666, 0.0013333333333333333
594, 0.0026666666666666666, 0.006666666666666666, 0.0
595, 0.0026666666666666666, 0.006666666666666666, 0.0026666666666666666
596, 0.0026666666666666666, 0.006666666666666666, 0.004
597, 0.0026666666666666666, 0.006666666666666666, 0.005333333333333333
598, 0.0026666666666666666, 0.006666666666666666, 0.006666666666666666
599, 0.0026666666666666666, 0.006666666666666666, 0.008
600, 0.0026666666666666666, 0.006666666666666666, 0.009333333333333332
601, 0.0026666666666666666, 0.006666666666666666, 0.010666666666666666
602, 0.0026666666666666666, 0.006666666666666666, 0.012
603, 0.0026666666666666666, 0.006666666666666666, 0.013333333333333332
604, 0.0026666666666666666, 0.006666666666666666, 0.014666666666666666
605, 0.0026666666666666666, 0.006666666666666666, 0.016
606, 0.0026666666666666666, 0.006666666666666666, 0.017333333333333333
607, 0.0026666666666666666, 0.006666666666666666, 0.018666666666666665
608, 0.0026666666666666666, 0.006666666666666666, 0.02
609, 0.0026666666666666666, 0.008, 0.0013333333333333333
610, 0.0026666666666666666, 0.008, 0.0
611, 0.0026666666666666666, 0.008, 0.0026666666666666666
612, 0.0026666666666666666, 0.008, 0.004
613, 0.0026666666666666666, 0.008, 0.005333333333333333
614, 0.0026666666666666666, 0.008, 0.006666666666666666
615, 0.0026666666666666666, 0.008, 0.008
616, 0.0026666666666666666, 0.008, 0.009333333333333332
617, 0.0026666666666666666, 0.008, 0.010666666666666666
618, 0.0026666666666666666, 0.008, 0.012
619, 0.0026666666666666666, 0.008, 0.013333333333333332
620, 0.0026666666666666666, 0.008, 0.014666666666666666
621, 0.0026666666666666666, 0.008, 0.016
622, 0.0026666666666666666, 0.008, 0.017333333333333333
623, 0.0026666666666666666, 0.008, 0.018666666666666665
624, 0.0026666666666666666, 0.008, 0.02
625, 0.0026666666666666666, 0.009333333333333332, 0.0013333333333333333
626, 0.0026666666666666666, 0.009333333333333332, 0.0
627, 0.0026666666666666666, 0.009333333333333332, 0.0026666666666666666
628, 0.0026666666666666666, 0.009333333333333332, 0.004
629, 0.0026666666666666666, 0.009333333333333332, 0.005333333333333333
630, 0.0026666666666666666, 0.009333333333333332, 0.006666666666666666
631, 0.0026666666666666666, 0.009333333333333332, 0.008
632, 0.0026666666666666666, 0.009333333333333332, 0.009333333333333332
633, 0.0026666666666666666, 0.009333333333333332, 0.010666666666666666
634, 0.0026666666666666666, 0.009333333333333332, 0.012
635, 0.0026666666666666666, 0.009333333333333332, 0.013333333333333332
636, 0.0026666666666666666, 0.009333333333333332, 0.014666666666666666
637, 0.0026666666666666666, 0.009333333333333332, 0.016
638, 0.0026666666666666666, 0.009333333333333332, 0.017333333333333333
639, 0.0026666666666666666, 0.009333333333333332, 0.018666666666666665
640, 0.0026666666666666666, 0.009333333333333332, 0.02
641, 0.0026666666666666666, 0.010666666666666666, 0.0013333333333333333
642, 0.0026666666666666666, 0.010666666666666666, 0.0
643, 0.0026666666666666666, 0.010666666666666666, 0.0026666666666666666
644, 0.0026666666666666666, 0.010666666666666666, 0.004
645, 0.0026666666666666666, 0.010666666666666666, 0.005333333333333333
646, 0.0026666666666666666, 0.010666666666666666, 0.006666666666666666
647, 0.0026666666666666666, 0.010666666666666666, 0.008
648, 0.0026666666666666666, 0.010666666666666666, 0.009333333333333332
649, 0.0026666666666666666, 0.010666666666666666, 0.010666666666666666
650, 0.0026666666666666666, 0.010666666666666666, 0.012
651, 0.0026666666666666666, 0.010666666666666666, 0.013333333333333332
652, 0.0026666666666666666, 0.010666666666666666, 0.014666666666666666
653, 0.0026666666666666666, 0.010666666666666666, 0.016
654, 0.0026666666666666666, 0.010666666666666666, 0.017333333333333333
655, 0.0026666666666666666, 0.010666666666666666, 0.018666666666666665
656, 0.0026666666666666666, 0.010666666666666666, 0.02
657, 0.0026666666666666666, 0.012, 0.0013333333333333333
658, 0.0026666666666666666, 0.012, 0.0
659, 0.0026666666666666666, 0.012, 0.0026666666666666666
660, 0.0026666666666666666, 0.012, 0.004
661, 0.0026666666666666666, 0.012, 0.005333333333333333
662, 0.0026666666666666666, 0.012, 0.006666666666666666
663, 0.0026666666666666666, 0.012, 0.008
664, 0.0026666666666666666, 0.012, 0.009333333333333332
665, 0.0026666666666666666, 0.012, 0.010666666666666666
666, 0.0026666666666666666, 0.012, 0.012
667, 0.0026666666666666666, 0.012, 0.013333333333333332
668, 0.0026666666666666666, 0.012, 0.014666666666666666
669, 0.0026666666666666666, 0.012, 0.016
670, 0.0026666666666666666, 0.012, 0.017333333333333333
671, 0.0026666666666666666, 0.012, 0.018666666666666665
672, 0.0026666666666666666, 0.012, 0.02
673, 0.0026666666666666666, 0.013333333333333332, 0.0013333333333333333
674, 0.0026666666666666666, 0.013333333333333332, 0.0
675, 0.0026666666666666666, 0.013333333333333332, 0.0026666666666666666
676, 0.0026666666666666666, 0.013333333333333332, 0.004
677, 0.0026666666666666666, 0.013333333333333332, 0.005333333333333333
678, 0.0026666666666666666, 0.013333333333333332, 0.006666666666666666
679, 0.0026666666666666666, 0.013333333333333332, 0.008
680, 0.0026666666666666666, 0.013333333333333332, 0.009333333333333332
681, 0.0026666666666666666, 0.013333333333333332, 0.010666666666666666
682, 0.0026666666666666666, 0.013333333333333332, 0.012
683, 0.0026666666666666666, 0.013333333333333332, 0.013333333333333332
684, 0.0026666666666666666, 0.013333333333333332, 0.014666666666666666
685, 0.0026666666666666666, 0.013333333333333332, 0.016
686, 0.0026666666666666666, 0.013333333333333332, 0.017333333333333333
687, 0.0026666666666666666, 0.013333333333333332, 0.018666666666666665
688, 0.0026666666666666666, 0.013333333333333332, 0.02
689, 0.0026666666666666666, 0.014666666666666666, 0.0013333333333333333
690, 0.0026666666666666666, 0.014666666666666666, 0.0
691, 0.0026666666666666666, 0.014666666666666666, 0.0026666666666666666
692, 0.0026666666666666666, 0.014666666666666666, 0.004
693, 0.0026666666666666666, 0.014666666666666666, 0.005333333333333333
694, 0.0026666666666666666, 0.014666666666666666, 0.006666666666666666
695, 0.0026666666666666666, 0.014666666666666666, 0.008
696, 0.0026666666666666666, 0.014666666666666666, 0.009333333333333332
697, 0.0026666666666666666, 0.014666666666666666, 0.010666666666666666
698, 0.0026666666666666666, 0.014666666666666666, 0.012
699, 0.0026666666666666666, 0.014666666666666666, 0.013333333333333332
700, 0.0026666666666666666, 0.014666666666666666, 0.014666666666666666
701, 0.0026666666666666666, 0.014666666666666666, 0.016
702, 0.0026666666666666666, 0.014666666666666666, 0.017333333333333333
703, 0.0026666666666666666, 0.014666666666666666, 0.018666666666666665
704, 0.0026666666666666666, 0.014666666666666666, 0.02
705, 0.0026666666666666666, 0.016, 0.0013333333333333333
706, 0.0026666666666666666, 0.016, 0.0
707, 0.0026666666666666666, 0.016, 0.0026666666666666666
708, 0.0026666666666666666, 0.016, 0.004
709, 0.0026666666666666666, 0.016, 0.005333333333333333
710, 0.0026666666666666666, 0.016, 0.006666666666666666
711, 0.0026666666666666666, 0.016, 0.008
712, 0.0026666666666666666, 0.016, 0.009333333333333332
713, 0.0026666666666666666, 0.016, 0.010666666666666666
714, 0.0026666666666666666, 0.016, 0.012
715, 0.0026666666666666666, 0.016, 0.013333333333333332
716, 0.0026666666666666666, 0.016, 0.014666666666666666
717, 0.0026666666666666666, 0.016, 0.016
718, 0.0026666666666666666, 0.016, 0.017333333333333333
719, 0.0026666666666666666, 0.016, 0.018666666666666665
720, 0.0026666666666666666, 0.016, 0.02
721, 0.0026666666666666666, 0.017333333333333333, 0.0013333333333333333
722, 0.0026666666666666666, 0.017333333333333333, 0.0
723, 0.0026666666666666666, 0.017333333333333333, 0.0026666666666666666
724, 0.0026666666666666666, 0.017333333333333333, 0.004
725, 0.0026666666666666666, 0.017333333333333333, 0.005333333333333333
726, 0.0026666666666666666, 0.017333333333333333, 0.006666666666666666
727, 0.0026666666666666666, 0.017333333333333333, 0.008
728, 0.0026666666666666666, 0.017333333333333333, 0.009333333333333332
729, 0.0026666666666666666, 0.017333333333333333, 0.010666666666666666
730, 0.0026666666666666666, 0.017333333333333333, 0.012
731, 0.0026666666666666666, 0.017333333333333333, 0.013333333333333332
732, 0.0026666666666666666, 0.017333333333333333, 0.014666666666666666
733, 0.0026666666666666666, 0.017333333333333333, 0.016
734, 0.0026666666666666666, 0.017333333333333333, 0.017333333333333333
735, 0.0026666666666666666, 0.017333333333333333, 0.018666666666666665
736, 0.0026666666666666666, 0.017333333333333333, 0.02
737, 0.0026666666666666666, 0.018666666666666665, 0.0013333333333333333
738, 0.0026666666666666666, 0.018666666666666665, 0.0
739, 0.0026666666666666666, 0.018666666666666665, 0.0026666666666666666
740, 0.0026666666666666666, 0.018666666666666665, 0.004
741, 0.0026666666666666666, 0.018666666666666665, 0.005333333333333333
742, 0.0026666666666666666, 0.018666666666666665, 0.006666666666666666
743, 0.0026666666666666666, 0.018666666666666665, 0.008
744, 0.0026666666666666666, 0.018666666666666665, 0.009333333333333332
745, 0.0026666666666666666, 0.018666666666666665, 0.010666666666666666
746, 0.0026666666666666666, 0.018666666666666665, 0.012
747, 0.0026666666666666666, 0.018666666666666665, 0.013333333333333332
748, 0.0026666666666666666, 0.018666666666666665, 0.014666666666666666
749, 0.0026666666666666666, 0.018666666666666665, 0.016
750, 0.0026666666666666666, 0.018666666666666665, 0.017333333333333333
751, 0.0026666666666666666, 0.018666666666666665, 0.018666666666666665
752, 0.0026666666666666666, 0.018666666666666665, 0.02
753, 0.0026666666666666666, 0.02, 0.0013333333333333333
754, 0.0026666666666666666, 0.02, 0.0
755, 0.0026666666666666666, 0.02, 0.0026666666666666666
756, 0.0026666666666666666, 0.02, 0.004
757, 0.0026666666666666666, 0.02, 0.005333333333333333
758, 0.0026666666666666666, 0.02, 0.006666666666666666
759, 0.0026666666666666666, 0.02, 0.008
760, 0.0026666666666666666, 0.02, 0.009333333333333332
761, 0.0026666666666666666, 0.02, 0.010666666666666666
762, 0.0026666666666666666, 0.02, 0.012
763, 0.0026666666666666666, 0.02, 0.013333333333333332
764, 0.0026666666666666666, 0.02, 0.014666666666666666
765, 0.0026666666666666666, 0.02, 0.016
766, 0.0026666666666666666, 0.02, 0.017333333333333333
767, 0.0026666666666666666, 0.02, 0.018666666666666665
768, 0.0026666666666666666, 0.02, 0.02
769, 0.004, 0.0, 0.0013333333333333333
770, 0.004, 0.0, 0.0
771, 0.004, 0.0013333333333333333, 0.0013333333333333333
772, 0.004, 0.0013333333333333333, 0.0
773, 0.004, 0.0, 0.0026666666666666666
774, 0.004, 0.0013333333333333333, 0.0026666666666666666
775, 0.004, 0.0, 0.004
776, 0.004, 0.0013333333333333333, 0.004
777, 0.004, 0.0, 0.005333333333333333
778, 0.004, 0.0013333333333333333, 0.005333333333333333
779, 0.004, 0.0, 0.006666666666666666
780, 0.004, 0.0013333333333333333, 0.006666666666666666
781, 0.004, 0.0, 0.008
782, 0.004, 0.0013333333333333333, 0.008
783, 0.004, 0.0, 0.009333333333333332
784, 0.004, 0.0013333333333333333, 0.009333333333333332
785, 0.004, 0.0, 0.010666666666666666
786, 0.004, 0.0013333333333333333, 0.010666666666666666
787, 0.004, 0.0, 0.012
788, 0.004, 0.0013333333333333333, 0.012
789, 0.004, 0.0, 0.013333333333333332
790, 0.004, 0.0013333333333333333, 0.013333333333333332
791, 0.004, 0.0, 0.014666666666666666
792, 0.004, 0.0013333333333333333, 0.014666666666666666
793, 0.004, 0.0, 0.016
794, 0.004, 0.0013333333333333333, 0.016
795, 0.004, 0.0, 0.017333333333333333
796, 0.004, 0.0013333333333333333, 0.017333333333333333
797, 0.004, 0.0, 0.018666666666666665
798, 0.004, 0.0013333333333333333, 0.018666666666666665
799, 0.004, 0.0, 0.02
800, 0.004, 0.0013333333333333333, 0.02
801, 0.004, 0.0026666666666666666, 0.0013333333333333333
802, 0.004, 0.0026666666666666666, 0.0
803, 0.004, 0.0026666666666666666, 0.0026666666666666666
804, 0.004, 0.0026666666666666666, 0.004
805, 0.004, 0.0026666666666666666, 0.005333333333333333
806, 0.004, 0.0026666666666666666, 0.006666666666666666
807, 0.004, 0.0026666666666666666, 0.008
808, 0.004, 0.0026666666666666666, 0.009333333333333332
809, 0.004, 0.0026666666666666666, 0.010666666666666666
810, 0.004, 0.0026666666666666666, 0.012
811, 0.004, 0.0026666666666666666, 0.013333333333333332
812, 0.004, 0.0026666666666666666, 0.014666666666666666
813, 0.004, 0.0026666666666666666, 0.016
814, 0.004, 0.0026666666666666666, 0.017333333333333333
815, 0.004, 0.0026666666666666666, 0.018666666666666665
816, 0.004, 0.0026666666666666666, 0.02
817, 0.004, 0.004, 0.0013333333333333333
818, 0.004, 0.004, 0.0
819, 0.004, 0.004, 0.0026666666666666666
820, 0.004, 0.004, 0.004
821, 0.004, 0.004, 0.005333333333333333
822, 0.004, 0.004, 0.006666666666666666
823, 0.004, 0.004, 0.008
824, 0.004, 0.004, 0.009333333333333332
825, 0.004, 0.004, 0.010666666666666666
826, 0.004, 0.004, 0.012
827, 0.004, 0.004, 0.013333333333333332
828, 0.004, 0.004, 0.014666666666666666
829, 0.004, 0.004, 0.016
830, 0.004, 0.004, 0.017333333333333333
831, 0.004, 0.004, 0.018666666666666665
832, 0.004, 0.004, 0.02
833, 0.004, 0.005333333333333333, 0.0013333333333333333
834, 0.004, 0.005333333333333333, 0.0
835, 0.004, 0.005333333333333333, 0.0026666666666666666
836, 0.004, 0.005333333333333333, 0.004
837, 0.004, 0.005333333333333333, 0.005333333333333333
838, 0.004, 0.005333333333333333, 0.006666666666666666
839, 0.004, 0.005333333333333333, 0.008
840, 0.004, 0.005333333333333333, 0.009333333333333332
841, 0.004, 0.005333333333333333, 0.010666666666666666
842, 0.004, 0.005333333333333333, 0.012
843, 0.004, 0.005333333333333333, 0.013333333333333332
844, 0.004, 0.005333333333333333, 0.014666666666666666
845, 0.004, 0.005333333333333333, 0.016
846, 0.004, 0.005333333333333333, 0.017333333333333333
847, 0.004, 0.005333333333333333, 0.018666666666666665
848, 0.004, 0.005333333333333333, 0.02
849, 0.004, 0.006666666666666666, 0.0013333333333333333
850, 0.004, 0.006666666666666666, 0.0
851, 0.004, 0.006666666666666666, 0.0026666666666666666
852, 0.004, 0.006666666666666666, 0.004
853, 0.004, 0.006666666666666666, 0.005333333333333333
854, 0.004, 0.006666666666666666, 0.006666666666666666
855, 0.004, 0.006666666666666666, 0.008
856, 0.004, 0.006666666666666666, 0.009333333333333332
857, 0.004, 0.006666666666666666, 0.010666666666666666
858, 0.004, 0.006666666666666666, 0.012
859, 0.004, 0.006666666666666666, 0.013333333333333332
860, 0.004, 0.006666666666666666, 0.014666666666666666
861, 0.004, 0.006666666666666666, 0.016
862, 0.004, 0.006666666666666666, 0.017333333333333333
863, 0.004, 0.006666666666666666, 0.018666666666666665
864, 0.004, 0.006666666666666666, 0.02
865, 0.004, 0.008, 0.0013333333333333333
866, 0.004, 0.008, 0.0
867, 0.004, 0.008, 0.0026666666666666666
868, 0.004, 0.008, 0.004
869, 0.004, 0.008, 0.005333333333333333
870, 0.004, 0.008, 0.006666666666666666
871, 0.004, 0.008, 0.008
872, 0.004, 0.008, 0.009333333333333332
873, 0.004, 0.008, 0.010666666666666666
874, 0.004, 0.008, 0.012
875, 0.004, 0.008, 0.013333333333333332
876, 0.004, 0.008, 0.014666666666666666
877, 0.004, 0.008, 0.016
878, 0.004, 0.008, 0.017333333333333333
879, 0.004, 0.008, 0.018666666666666665
880, 0.004, 0.008, 0.02
881, 0.004, 0.009333333333333332, 0.0013333333333333333
882, 0.004, 0.009333333333333332, 0.0
883, 0.004, 0.009333333333333332, 0.0026666666666666666
884, 0.004, 0.009333333333333332, 0.004
885, 0.004, 0.009333333333333332, 0.005333333333333333
886, 0.004, 0.009333333333333332, 0.006666666666666666
887, 0.004, 0.009333333333333332, 0.008
888, 0.004, 0.009333333333333332, 0.009333333333333332
889, 0.004, 0.009333333333333332, 0.010666666666666666
890, 0.004, 0.009333333333333332, 0.012
891, 0.004, 0.009333333333333332, 0.013333333333333332
892, 0.004, 0.009333333333333332, 0.014666666666666666
893, 0.004, 0.009333333333333332, 0.016
894, 0.004, 0.009333333333333332, 0.017333333333333333
895, 0.004, 0.009333333333333332, 0.018666666666666665
896, 0.004, 0.009333333333333332, 0.02
897, 0.004, 0.010666666666666666, 0.0013333333333333333
898, 0.004, 0.010666666666666666, 0.0
899, 0.004, 0.010666666666666666, 0.0026666666666666666
900, 0.004, 0.010666666666666666, 0.004
901, 0.004, 0.010666666666666666, 0.005333333333333333
902, 0.004, 0.010666666666666666, 0.006666666666666666
903, 0.004, 0.010666666666666666, 0.008
904, 0.004, 0.010666666666666666, 0.009333333333333332
905, 0.004, 0.010666666666666666, 0.010666666666666666
906, 0.004, 0.010666666666666666, 0.012
907, 0.004, 0.010666666666666666, 0.013333333333333332
908, 0.004, 0.010666666666666666, 0.014666666666666666
909, 0.004, 0.010666666666666666, 0.016
910, 0.004, 0.010666666666666666, 0.017333333333333333
911, 0.004, 0.010666666666666666, 0.018666666666666665
912, 0.004, 0.010666666666666666, 0.02
913, 0.004, 0.012, 0.0013333333333333333
914, 0.004, 0.012, 0.0
915, 0.004, 0.012, 0.0026666666666666666
916, 0.004, 0.012, 0.004
917, 0.004, 0.012, 0.005333333333333333
918, 0.004, 0.012, 0.006666666666666666
919, 0.004, 0.012, 0.008
920, 0.004, 0.012, 0.009333333333333332
921, 0.004, 0.012, 0.010666666666666666
922, 0.004, 0.012, 0.012
923, 0.004, 0.012, 0.013333333333333332
924, 0.004, 0.012, 0.014666666666666666
925, 0.004, 0.012, 0.016
926, 0.004, 0.012, 0.017333333333333333
927, 0.004, 0.012, 0.018666666666666665
928, 0.004, 0.012, 0.02
929, 0.004, 0.013333333333333332, 0.0013333333333333333
930, 0.004, 0.013333333333333332, 0.0
931, 0.004, 0.013333333333333332, 0.0026666666666666666
932, 0.004, 0.013333333333333332, 0.004
933, 0.004, 0.013333333333333332, 0.005333333333333333
934, 0.004, 0.013333333333333332, 0.006666666666666666
935, 0.004, 0.013333333333333332, 0.008
936, 0.004, 0.013333333333333332, 0.009333333333333332
937, 0.004, 0.013333333333333332, 0.010666666666666666
938, 0.004, 0.013333333333333332, 0.012
939, 0.004, 0.013333333333333332, 0.013333333333333332
940, 0.004, 0.013333333333333332, 0.014666666666666666
941, 0.004, 0.013333333333333332, 0.016
942, 0.004, 0.013333333333333332, 0.017333333333333333
943, 0.004, 0.013333333333333332, 0.018666666666666665
944, 0.004, 0.013333333333333332, 0.02
945, 0.004, 0.014666666666666666, 0.0013333333333333333
946, 0.004, 0.014666666666666666, 0.0
947, 0.004, 0.014666666666666666, 0.0026666666666666666
948, 0.004, 0.014666666666666666, 0.004
949, 0.004, 0.014666666666666666, 0.005333333333333333
950, 0.004, 0.014666666666666666, 0.006666666666666666
951, 0.004, 0.014666666666666666, 0.008
952, 0.004, 0.014666666666666666, 0.009333333333333332
953, 0.004, 0.014666666666666666, 0.010666666666666666
954, 0.004, 0.014666666666666666, 0.012
955, 0.004, 0.014666666666666666, 0.013333333333333332
956, 0.004, 0.014666666666666666, 0.014666666666666666
957, 0.004, 0.014666666666666666, 0.016
958, 0.004, 0.014666666666666666, 0.017333333333333333
959, 0.004, 0.014666666666666666, 0.018666666666666665
960, 0.004, 0.014666666666666666, 0.02
961, 0.004, 0.016, 0.0013333333333333333
962, 0.004, 0.016, 0.0
963, 0.004, 0.016, 0.0026666666666666666
964, 0.004, 0.016, 0.004
965, 0.004, 0.016, 0.005333333333333333
966, 0.004, 0.016, 0.006666666666666666
967, 0.004, 0.016, 0.008
968, 0.004, 0.016, 0.009333333333333332
969, 0.004, 0.016, 0.010666666666666666
970, 0.004, 0.016, 0.012
971, 0.004, 0.016, 0.013333333333333332
972, 0.004, 0.016, 0.014666666666666666
973, 0.004, 0.016, 0.016
974, 0.004, 0.016, 0.017333333333333333
975, 0.004, 0.016, 0.018666666666666665
976, 0.004, 0.016, 0.02
977, 0.004, 0.017333333333333333, 0.0013333333333333333
978, 0.004, 0.017333333333333333, 0.0
979, 0.004, 0.017333333333333333, 0.0026666666666666666
980, 0.004, 0.017333333333333333, 0.004
981, 0.004, 0.017333333333333333, 0.005333333333333333
982, 0.004, 0.017333333333333333, 0.006666666666666666
983, 0.004, 0.017333333333333333, 0.008
984, 0.004, 0.017333333333333333, 0.009333333333333332
985, 0.004, 0.017333333333333333, 0.010666666666666666
986, 0.004, 0.017333333333333333, 0.012
987, 0.004, 0.017333333333333333, 0.013333333333333332
988, 0.004, 0.017333333333333333, 0.014666666666666666
989, 0.004, 0.017333333333333333, 0.016
990, 0.004, 0.017333333333333333, 0.017333333333333333
991, 0.004, 0.017333333333333333, 0.018666666666666665
992, 0.004, 0.017333333333333333, 0.02
993, 0.004, 0.018666666666666665, 0.0013333333333333333
994, 0.004, 0.018666666666666665, 0.0
995, 0.004, 0.018666666666666665, 0.0026666666666666666
996, 0.004, 0.018666666666666665, 0.004
997, 0.004, 0.018666666666666665, 0.005333333333333333
998, 0.004, 0.018666666666666665, 0.006666666666666666
999, 0.004, 0.018666666666666665, 0.008
1000, 0.004, 0.018666666666666665, 0.009333333333333332
1001, 0.004, 0.018666666666666665, 0.010666666666666666
1002, 0.004, 0.018666666666666665, 0.012
1003, 0.004, 0.018666666666666665, 0.013333333333333332
1004, 0.004, 0.018666666666666665, 0.014666666666666666
1005, 0.004, 0.018666666666666665, 0.016
1006, 0.004, 0.018666666666666665, 0.017333333333333333
1007, 0.004, 0.018666666666666665, 0.018666666666666665
1008, 0.004, 0.018666666666666665, 0.02
1009, 0.004, 0.02, 0.0013333333333333333
1010, 0.004, 0.02, 0.0
1011, 0.004, 0.02, 0.0026666666666666666
1012, 0.004, 0.02, 0.004
1013, 0.004, 0.02, 0.005333333333333333
1014, 0.004, 0.02, 0.006666666666666666
1015, 0.004, 0.02, 0.008
1016, 0.004, 0.02, 0.009333333333333332
1017, 0.004, 0.02, 0.010666666666666666
1018, 0.004, 0.02, 0.012
1019, 0.004, 0.02, 0.013333333333333332
1020, 0.004, 0.02, 0.014666666666666666
1021, 0.004, 0.02, 0.016
1022, 0.004, 0.02, 0.017333333333333333
1023, 0.004, 0.02, 0.018666666666666665
1024, 0.004, 0.02, 0.02
1025, 0.005333333333333333, 0.0, 0.0013333333333333333
1026, 0.005333333333333333, 0.0, 0.0
1027, 0.005333333333333333, 0.0013333333333333333, 0.0013333333333333333
1028, 0.005333333333333333, 0.0013333333333333333, 0.0
1029, 0.005333333333333333, 0.0, 0.0026666666666666666
1030, 0.005333333333333333, 0.0013333333333333333, 0.0026666666666666666
1031, 0.005333333333333333, 0.0, 0.004
1032, 0.005333333333333333, 0.0013333333333333333, 0.004
1033, 0.005333333333333333, 0.0, 0.005333333333333333
1034, 0.005333333333333333, 0.0013333333333333333, 0.005333333333333333
1035, 0.005333333333333333, 0.0, 0.006666666666666666
1036, 0.005333333333333333, 0.0013333333333333333, 0.006666666666666666
1037, 0.005333333333333333, 0.0, 0.008
1038, 0.005333333333333333, 0.0013333333333333333, 0.008
1039, 0.005333333333333333, 0.0, 0.009333333333333332
1040, 0.005333333333333333, 0.0013333333333333333, 0.009333333333333332
1041, 0.005333333333333333, 0.0, 0.010666666666666666
1042, 0.005333333333333333, 0.0013333333333333333, 0.010666666666666666
1043, 0.005333333333333333, 0.0, 0.012
1044, 0.005333333333333333, 0.0013333333333333333, 0.012
1045, 0.005333333333333333, 0.0, 0.013333333333333332
1046, 0.005333333333333333, 0.0013333333333333333, 0.013333333333333332
1047, 0.005333333333333333, 0.0, 0.014666666666666666
1048, 0.005333333333333333, 0.0013333333333333333, 0.014666666666666666
1049, 0.005333333333333333, 0.0, 0.016
1050, 0.005333333333333333, 0.0013333333333333333, 0.016
1051, 0.005333333333333333, 0.0, 0.017333333333333333
1052, 0.005333333333333333, 0.0013333333333333333, 0.017333333333333333
1053, 0.005333333333333333, 0.0, 0.018666666666666665
1054, 0.005333333333333333, 0.0013333333333333333, 0.018666666666666665
1055, 0.005333333333333333, 0.0, 0.02
1056, 0.005333333333333333, 0.0013333333333333333, 0.02
1057, 0.005333333333333333, 0.0026666666666666666, 0.0013333333333333333
1058, 0.005333333333333333, 0.0026666666666666666, 0.0
1059, 0.005333333333333333, 0.0026666666666666666, 0.0026666666666666666
1060, 0.005333333333333333, 0.0026666666666666666, 0.004
1061, 0.005333333333333333, 0.0026666666666666666, 0.005333333333333333
1062, 0.005333333333333333, 0.0026666666666666666, 0.006666666666666666
1063, 0.005333333333333333, 0.0026666666666666666, 0.008
1064, 0.005333333333333333, 0.0026666666666666666, 0.009333333333333332
1065, 0.005333333333333333, 0.0026666666666666666, 0.010666666666666666
1066, 0.005333333333333333, 0.0026666666666666666, 0.012
1067, 0.005333333333333333, 0.0026666666666666666, 0.013333333333333332
1068, 0.005333333333333333, 0.0026666666666666666, 0.014666666666666666
1069, 0.005333333333333333, 0.0026666666666666666, 0.016
1070, 0.005333333333333333, 0.0026666666666666666, 0.017333333333333333
1071, 0.005333333333333333, 0.0026666666666666666, 0.018666666666666665
1072, 0.005333333333333333, 0.0026666666666666666, 0.02
1073, 0.005333333333333333, 0.004, 0.0013333333333333333
1074, 0.005333333333333333, 0.004, 0.0
1075, 0.005333333333333333, 0.004, 0.0026666666666666666
1076, 0.005333333333333333, 0.004, 0.004
1077, 0.005333333333333333, 0.004, 0.005333333333333333
1078, 0.005333333333333333, 0.004, 0.006666666666666666
1079, 0.005333333333333333, 0.004, 0.008
1080, 0.005333333333333333, 0.004, 0.009333333333333332
1081, 0.005333333333333333, 0.004, 0.010666666666666666
1082, 0.005333333333333333, 0.004, 0.012
1083, 0.005333333333333333, 0.004, 0.013333333333333332
1084, 0.005333333333333333, 0.004, 0.014666666666666666
1085, 0.005333333333333333, 0.004, 0.016
1086, 0.005333333333333333, 0.004, 0.017333333333333333
1087, 0.005333333333333333, 0.004, 0.018666666666666665
1088, 0.005333333333333333, 0.004, 0.02
1089, 0.005333333333333333, 0.005333333333333333, 0.0013333333333333333
1090, 0.005333333333333333, 0.005333333333333333, 0.0
1091, 0.005333333333333333, 0.005333333333333333, 0.0026666666666666666
1092, 0.005333333333333333, 0.005333333333333333, 0.004
1093, 0.005333333333333333, 0.005333333333333333, 0.005333333333333333
1094, 0.005333333333333333, 0.005333333333333333, 0.006666666666666666
1095, 0.005333333333333333, 0.005333333333333333, 0.008
1096, 0.005333333333333333, 0.005333333333333333, 0.009333333333333332
1097, 0.005333333333333333, 0.005333333333333333, 0.010666666666666666
1098, 0.005333333333333333, 0.005333333333333333, 0.012
1099, 0.005333333333333333, 0.005333333333333333, 0.013333333333333332
1100, 0.005333333333333333, 0.005333333333333333, 0.014666666666666666
1101, 0.005333333333333333, 0.005333333333333333, 0.016
1102, 0.005333333333333333, 0.005333333333333333, 0.017333333333333333
1103, 0.005333333333333333, 0.005333333333333333, 0.018666666666666665
1104, 0.005333333333333333, 0.005333333333333333, 0.02
1105, 0.005333333333333333, 0.006666666666666666, 0.0013333333333333333
1106, 0.005333333333333333, 0.006666666666666666, 0.0
1107, 0.005333333333333333, 0.006666666666666666, 0.0026666666666666666
1108, 0.005333333333333333, 0.006666666666666666, 0.004
1109, 0.005333333333333333, 0.006666666666666666, 0.005333333333333333
1110, 0.005333333333333333, 0.006666666666666666, 0.006666666666666666
1111, 0.005333333333333333, 0.006666666666666666, 0.008
1112, 0.005333333333333333, 0.006666666666666666, 0.009333333333333332
1113, 0.005333333333333333, 0.006666666666666666, 0.010666666666666666
1114, 0.005333333333333333, 0.006666666666666666, 0.012
1115, 0.005333333333333333, 0.006666666666666666, 0.013333333333333332
1116, 0.005333333333333333, 0.006666666666666666, 0.014666666666666666
1117, 0.005333333333333333, 0.006666666666666666, 0.016
1118, 0.005333333333333333, 0.006666666666666666, 0.017333333333333333
1119, 0.005333333333333333, 0.006666666666666666, 0.018666666666666665
1120, 0.005333333333333333, 0.006666666666666666, 0.02
1121, 0.005333333333333333, 0.008, 0.0013333333333333333
1122, 0.005333333333333333, 0.008, 0.0
1123, 0.005333333333333333, 0.008, 0.0026666666666666666
1124, 0.005333333333333333, 0.008, 0.004
1125, 0.005333333333333333, 0.008, 0.005333333333333333
1126, 0.005333333333333333, 0.008, 0.006666666666666666
1127, 0.005333333333333333, 0.008, 0.008
1128, 0.005333333333333333, 0.008, 0.009333333333333332
1129, 0.005333333333333333, 0.008, 0.010666666666666666
1130, 0.005333333333333333, 0.008, 0.012
1131, 0.005333333333333333, 0.008, 0.013333333333333332
1132, 0.005333333333333333, 0.008, 0.014666666666666666
1133, 0.005333333333333333, 0.008, 0.016
1134, 0.005333333333333333, 0.008, 0.017333333333333333
1135, 0.005333333333333333, 0.008, 0.018666666666666665
1136, 0.005333333333333333, 0.008, 0.02
1137, 0.005333333333333333, 0.009333333333333332, 0.0013333333333333333
1138, 0.005333333333333333, 0.009333333333333332, 0.0
1139, 0.005333333333333333, 0.009333333333333332, 0.0026666666666666666
1140, 0.005333333333333333, 0.009333333333333332, 0.004
1141, 0.005333333333333333, 0.009333333333333332, 0.005333333333333333
1142, 0.005333333333333333, 0.009333333333333332, 0.006666666666666666
1143, 0.005333333333333333, 0.009333333333333332, 0.008
1144, 0.005333333333333333, 0.009333333333333332, 0.009333333333333332
1145, 0.005333333333333333, 0.009333333333333332, 0.010666666666666666
1146, 0.005333333333333333, 0.009333333333333332, 0.012
1147, 0.005333333333333333, 0.009333333333333332, 0.013333333333333332
1148, 0.005333333333333333, 0.009333333333333332, 0.014666666666666666
1149, 0.005333333333333333, 0.009333333333333332, 0.016
1150, 0.005333333333333333, 0.009333333333333332, 0.017333333333333333
1151, 0.005333333333333333, 0.009333333333333332, 0.018666666666666665
1152, 0.005333333333333333, 0.009333333333333332, 0.02
1153, 0.005333333333333333, 0.010666666666666666, 0.0013333333333333333
1154, 0.005333333333333333, 0.010666666666666666, 0.0
1155, 0.005333333333333333, 0.010666666666666666, 0.0026666666666666666
1156, 0.005333333333333333, 0.010666666666666666, 0.004
1157, 0.005333333333333333, 0.010666666666666666, 0.005333333333333333
1158, 0.005333333333333333, 0.010666666666666666, 0.006666666666666666
1159, 0.005333333333333333, 0.010666666666666666, 0.008
1160, 0.005333333333333333, 0.010666666666666666, 0.009333333333333332
1161, 0.005333333333333333, 0.010666666666666666, 0.010666666666666666
1162, 0.005333333333333333, 0.010666666666666666, 0.012
1163, 0.005333333333333333, 0.010666666666666666, 0.013333333333333332
1164, 0.005333333333333333, 0.010666666666666666, 0.014666666666666666
1165, 0.005333333333333333, 0.010666666666666666, 0.016
1166, 0.005333333333333333, 0.010666666666666666, 0.017333333333333333
1167, 0.005333333333333333, 0.010666666666666666, 0.018666666666666665
1168, 0.005333333333333333, 0.010666666666666666, 0.02
1169, 0.005333333333333333, 0.012, 0.0013333333333333333
1170, 0.005333333333333333, 0.012, 0.0
1171, 0.005333333333333333, 0.012, 0.0026666666666666666
1172, 0.005333333333333333, 0.012, 0.004
1173, 0.005333333333333333, 0.012, 0.005333333333333333
1174, 0.005333333333333333, 0.012, 0.006666666666666666
1175, 0.005333333333333333, 0.012, 0.008
1176, 0.005333333333333333, 0.012, 0.009333333333333332
1177, 0.005333333333333333, 0.012, 0.010666666666666666
1178, 0.005333333333333333, 0.012, 0.012
1179, 0.005333333333333333, 0.012, 0.013333333333333332
1180, 0.005333333333333333, 0.012, 0.014666666666666666
1181, 0.005333333333333333, 0.012, 0.016
1182, 0.005333333333333333, 0.012, 0.017333333333333333
1183, 0.005333333333333333, 0.012, 0.018666666666666665
1184, 0.005333333333333333, 0.012, 0.02
1185, 0.005333333333333333, 0.013333333333333332, 0.0013333333333333333
1186, 0.005333333333333333, 0.013333333333333332, 0.0
1187, 0.005333333333333333, 0.013333333333333332, 0.0026666666666666666
1188, 0.005333333333333333, 0.013333333333333332, 0.004
1189, 0.005333333333333333, 0.013333333333333332, 0.005333333333333333
1190, 0.005333333333333333, 0.013333333333333332, 0.006666666666666666
1191, 0.005333333333333333, 0.013333333333333332, 0.008
1192, 0.005333333333333333, 0.013333333333333332, 0.009333333333333332
1193, 0.005333333333333333, 0.013333333333333332, 0.010666666666666666
1194, 0.005333333333333333, 0.013333333333333332, 0.012
1195, 0.005333333333333333, 0.013333333333333332, 0.013333333333333332
1196, 0.005333333333333333, 0.013333333333333332, 0.014666666666666666
1197, 0.005333333333333333, 0.013333333333333332, 0.016
1198, 0.005333333333333333, 0.013333333333333332, 0.017333333333333333
1199, 0.005333333333333333, 0.013333333333333332, 0.018666666666666665
1200, 0.005333333333333333, 0.013333333333333332, 0.02
1201, 0.005333333333333333, 0.014666666666666666, 0.0013333333333333333
1202, 0.005333333333333333, 0.014666666666666666, 0.0
1203, 0.005333333333333333, 0.014666666666666666, 0.0026666666666666666
1204, 0.005333333333333333, 0.014666666666666666, 0.004
1205, 0.005333333333333333, 0.014666666666666666, 0.005333333333333333
1206, 0.005333333333333333, 0.014666666666666666, 0.006666666666666666
1207, 0.005333333333333333, 0.014666666666666666, 0.008
1208, 0.005333333333333333, 0.014666666666666666, 0.009333333333333332
1209, 0.005333333333333333, 0.014666666666666666, 0.010666666666666666
1210, 0.005333333333333333, 0.014666666666666666, 0.012
1211, 0.005333333333333333, 0.014666666666666666, 0.013333333333333332
1212, 0.005333333333333333, 0.014666666666666666, 0.014666666666666666
1213, 0.005333333333333333, 0.014666666666666666, 0.016
1214, 0.005333333333333333, 0.014666666666666666, 0.017333333333333333
1215, 0.005333333333333333, 0.014666666666666666, 0.018666666666666665
1216, 0.005333333333333333, 0.014666666666666666, 0.02
1217, 0.005333333333333333, 0.016, 0.0013333333333333333
1218, 0.005333333333333333, 0.016, 0.0
1219, 0.005333333333333333, 0.016, 0.0026666666666666666
1220, 0.005333333333333333, 0.016, 0.004
1221, 0.005333333333333333, 0.016, 0.005333333333333333
1222, 0.005333333333333333, 0.016, 0.006666666666666666
1223, 0.005333333333333333, 0.016, 0.008
1224, 0.005333333333333333, 0.016, 0.009333333333333332
1225, 0.005333333333333333, 0.016, 0.010666666666666666
1226, 0.005333333333333333, 0.016, 0.012
1227, 0.005333333333333333, 0.016, 0.013333333333333332
1228, 0.005333333333333333, 0.016, 0.014666666666666666
1229, 0.005333333333333333, 0.016, 0.016
1230, 0.005333333333333333, 0.016, 0.017333333333333333
1231, 0.005333333333333333, 0.016, 0.018666666666666665
1232, 0.005333333333333333, 0.016, 0.02
1233, 0.005333333333333333, 0.017333333333333333, 0.0013333333333333333
1234, 0.005333333333333333, 0.017333333333333333, 0.0
1235, 0.005333333333333333, 0.017333333333333333, 0.0026666666666666666
1236, 0.005333333333333333, 0.017333333333333333, 0.004
1237, 0.005333333333333333, 0.017333333333333333, 0.005333333333333333
1238, 0.005333333333333333, 0.017333333333333333, 0.006666666666666666
1239, 0.005333333333333333, 0.017333333333333333, 0.008
1240, 0.005333333333333333, 0.017333333333333333, 0.009333333333333332
1241, 0.005333333333333333, 0.017333333333333333, 0.010666666666666666
1242, 0.005333333333333333, 0.017333333333333333, 0.012
1243, 0.005333333333333333, 0.017333333333333333, 0.013333333333333332
1244, 0.005333333333333333, 0.017333333333333333, 0.014666666666666666
1245, 0.005333333333333333, 0.017333333333333333, 0.016
1246, 0.005333333333333333, 0.017333333333333333, 0.017333333333333333
1247, 0.005333333333333333, 0.017333333333333333, 0.018666666666666665
1248, 0.005333333333333333, 0.017333333333333333, 0.02
1249, 0.005333333333333333, 0.018666666666666665, 0.0013333333333333333
1250, 0.005333333333333333, 0.018666666666666665, 0.0
1251, 0.005333333333333333, 0.018666666666666665, 0.0026666666666666666
1252, 0.005333333333333333, 0.018666666666666665, 0.004
1253, 0.005333333333333333, 0.018666666666666665, 0.005333333333333333
1254, 0.005333333333333333, 0.018666666666666665, 0.006666666666666666
1255, 0.005333333333333333, 0.018666666666666665, 0.008
1256, 0.005333333333333333, 0.018666666666666665, 0.009333333333333332
1257, 0.005333333333333333, 0.018666666666666665, 0.010666666666666666
1258, 0.005333333333333333, 0.018666666666666665, 0.012
1259, 0.005333333333333333, 0.018666666666666665, 0.013333333333333332
1260, 0.005333333333333333, 0.018666666666666665, 0.014666666666666666
1261, 0.005333333333333333, 0.018666666666666665, 0.016
1262, 0.005333333333333333, 0.018666666666666665, 0.017333333333333333
1263, 0.005333333333333333, 0.018666666666666665, 0.018666666666666665
1264, 0.005333333333333333, 0.018666666666666665, 0.02
1265, 0.005333333333333333, 0.02, 0.0013333333333333333
1266, 0.005333333333333333, 0.02, 0.0
1267, 0.005333333333333333, 0.02, 0.0026666666666666666
1268, 0.005333333333333333, 0.02, 0.004
1269, 0.005333333333333333, 0.02, 0.005333333333333333
1270, 0.005333333333333333, 0.02, 0.006666666666666666
1271, 0.005333333333333333, 0.02, 0.008
1272, 0.005333333333333333, 0.02, 0.009333333333333332
1273, 0.005333333333333333, 0.02, 0.010666666666666666
1274, 0.005333333333333333, 0.02, 0.012
1275, 0.005333333333333333, 0.02, 0.013333333333333332
1276, 0.005333333333333333, 0.02, 0.014666666666666666
1277, 0.005333333333333333, 0.02, 0.016
1278, 0.005333333333333333, 0.02, 0.017333333333333333
1279, 0.005333333333333333, 0.02, 0.018666666666666665
1280, 0.005333333333333333, 0.02, 0.02
1281, 0.006666666666666666, 0.0, 0.0013333333333333333
1282, 0.006666666666666666, 0.0, 0.0
1283, 0.006666666666666666, 0.0013333333333333333, 0.0013333333333333333
1284, 0.006666666666666666, 0.0013333333333333333, 0.0
1285, 0.006666666666666666, 0.0, 0.0026666666666666666
1286, 0.006666666666666666, 0.0013333333333333333, 0.0026666666666666666
1287, 0.006666666666666666, 0.0, 0.004
1288, 0.006666666666666666, 0.0013333333333333333, 0.004
1289, 0.006666666666666666, 0.0, 0.005333333333333333
1290, 0.006666666666666666, 0.0013333333333333333, 0.005333333333333333
1291, 0.006666666666666666, 0.0, 0.006666666666666666
1292, 0.006666666666666666, 0.0013333333333333333, 0.006666666666666666
1293, 0.006666666666666666, 0.0, 0.008
1294, 0.006666666666666666, 0.0013333333333333333, 0.008
1295, 0.006666666666666666, 0.0, 0.009333333333333332
1296, 0.006666666666666666, 0.0013333333333333333, 0.009333333333333332
1297, 0.006666666666666666, 0.0, 0.010666666666666666
1298, 0.006666666666666666, 0.0013333333333333333, 0.010666666666666666
1299, 0.006666666666666666, 0.0, 0.012
1300, 0.006666666666666666, 0.0013333333333333333, 0.012
1301, 0.006666666666666666, 0.0, 0.013333333333333332
1302, 0.006666666666666666, 0.0013333333333333333, 0.013333333333333332
1303, 0.006666666666666666, 0.0, 0.014666666666666666
1304, 0.006666666666666666, 0.0013333333333333333, 0.014666666666666666
1305, 0.006666666666666666, 0.0, 0.016
1306, 0.006666666666666666, 0.0013333333333333333, 0.016
1307, 0.006666666666666666, 0.0, 0.017333333333333333
1308, 0.006666666666666666, 0.0013333333333333333, 0.017333333333333333
1309, 0.006666666666666666, 0.0, 0.018666666666666665
1310, 0.006666666666666666, 0.0013333333333333333, 0.018666666666666665
1311, 0.006666666666666666, 0.0, 0.02
1312, 0.006666666666666666, 0.0013333333333333333, 0.02
1313, 0.006666666666666666, 0.0026666666666666666, 0.0013333333333333333
1314, 0.006666666666666666, 0.0026666666666666666, 0.0
1315, 0.006666666666666666, 0.0026666666666666666, 0.0026666666666666666
1316, 0.006666666666666666, 0.0026666666666666666, 0.004
1317, 0.006666666666666666, 0.0026666666666666666, 0.005333333333333333
1318, 0.006666666666666666, 0.0026666666666666666, 0.006666666666666666
1319, 0.006666666666666666, 0.0026666666666666666, 0.008
1320, 0.006666666666666666, 0.0026666666666666666, 0.009333333333333332
1321, 0.006666666666666666, 0.0026666666666666666, 0.010666666666666666
1322, 0.006666666666666666, 0.0026666666666666666, 0.012
1323, 0.006666666666666666, 0.0026666666666666666, 0.013333333333333332
1324, 0.006666666666666666, 0.0026666666666666666, 0.014666666666666666
1325, 0.006666666666666666, 0.0026666666666666666, 0.016
1326, 0.006666666666666666, 0.0026666666666666666, 0.017333333333333333
1327, 0.006666666666666666, 0.0026666666666666666, 0.018666666666666665
1328, 0.006666666666666666, 0.0026666666666666666, 0.02
1329, 0.006666666666666666, 0.004, 0.0013333333333333333
1330, 0.006666666666666666, 0.004, 0.0
1331, 0.006666666666666666, 0.004, 0.0026666666666666666
1332, 0.006666666666666666, 0.004, 0.004
1333, 0.006666666666666666, 0.004, 0.005333333333333333
1334, 0.006666666666666666, 0.004, 0.006666666666666666
1335, 0.006666666666666666, 0.004, 0.008
1336, 0.006666666666666666, 0.004, 0.009333333333333332
1337, 0.006666666666666666, 0.004, 0.010666666666666666
1338, 0.006666666666666666, 0.004, 0.012
1339, 0.006666666666666666, 0.004, 0.013333333333333332
1340, 0.006666666666666666, 0.004, 0.014666666666666666
1341, 0.006666666666666666, 0.004, 0.016
1342, 0.006666666666666666, 0.004, 0.017333333333333333
1343, 0.006666666666666666, 0.004, 0.018666666666666665
1344, 0.006666666666666666, 0.004, 0.02
1345, 0.006666666666666666, 0.005333333333333333, 0.0013333333333333333
1346, 0.006666666666666666, 0.005333333333333333, 0.0
1347, 0.006666666666666666, 0.005333333333333333, 0.0026666666666666666
1348, 0.006666666666666666, 0.005333333333333333, 0.004
1349, 0.006666666666666666, 0.005333333333333333, 0.005333333333333333
1350, 0.006666666666666666, 0.005333333333333333, 0.006666666666666666
1351, 0.006666666666666666, 0.005333333333333333, 0.008
1352, 0.006666666666666666, 0.005333333333333333, 0.009333333333333332
1353, 0.006666666666666666, 0.005333333333333333, 0.010666666666666666
1354, 0.006666666666666666, 0.005333333333333333, 0.012
1355, 0.006666666666666666, 0.005333333333333333, 0.013333333333333332
1356, 0.006666666666666666, 0.005333333333333333, 0.014666666666666666
1357, 0.006666666666666666, 0.005333333333333333, 0.016
1358, 0.006666666666666666, 0.005333333333333333, 0.017333333333333333
1359, 0.006666666666666666, 0.005333333333333333, 0.018666666666666665
1360, 0.006666666666666666, 0.005333333333333333, 0.02
1361, 0.006666666666666666, 0.006666666666666666, 0.0013333333333333333
1362, 0.006666666666666666, 0.006666666666666666, 0.0
1363, 0.006666666666666666, 0.006666666666666666, 0.0026666666666666666
1364, 0.006666666666666666, 0.006666666666666666, 0.004
1365, 0.006666666666666666, 0.006666666666666666, 0.005333333333333333
1366, 0.006666666666666666, 0.006666666666666666, 0.006666666666666666
1367, 0.006666666666666666, 0.006666666666666666, 0.008
1368, 0.006666666666666666, 0.006666666666666666, 0.009333333333333332
1369, 0.006666666666666666, 0.006666666666666666, 0.010666666666666666
1370, 0.006666666666666666, 0.006666666666666666, 0.012
1371, 0.006666666666666666, 0.006666666666666666, 0.013333333333333332
1372, 0.006666666666666666, 0.006666666666666666, 0.014666666666666666
1373, 0.006666666666666666, 0.006666666666666666, 0.016
1374, 0.006666666666666666, 0.006666666666666666, 0.017333333333333333
1375, 0.006666666666666666, 0.006666666666666666, 0.018666666666666665
1376, 0.006666666666666666, 0.006666666666666666, 0.02
1377, 0.006666666666666666, 0.008, 0.0013333333333333333
1378, 0.006666666666666666, 0.008, 0.0
1379, 0.006666666666666666, 0.008, 0.0026666666666666666
1380, 0.006666666666666666, 0.008, 0.004
1381, 0.006666666666666666, 0.008, 0.005333333333333333
1382, 0.006666666666666666, 0.008, 0.006666666666666666
1383, 0.006666666666666666, 0.008, 0.008
1384, 0.006666666666666666, 0.008, 0.009333333333333332
1385, 0.006666666666666666, 0.008, 0.010666666666666666
1386, 0.006666666666666666, 0.008, 0.012
1387, 0.006666666666666666, 0.008, 0.013333333333333332
1388, 0.006666666666666666, 0.008, 0.014666666666666666
1389, 0.006666666666666666, 0.008, 0.016
1390, 0.006666666666666666, 0.008, 0.017333333333333333
1391, 0.006666666666666666, 0.008, 0.018666666666666665
1392, 0.006666666666666666, 0.008, 0.02
1393, 0.006666666666666666, 0.009333333333333332, 0.0013333333333333333
1394, 0.006666666666666666, 0.009333333333333332, 0.0
1395, 0.006666666666666666, 0.009333333333333332, 0.0026666666666666666
1396, 0.006666666666666666, 0.009333333333333332, 0.004
1397, 0.006666666666666666, 0.009333333333333332, 0.005333333333333333
1398, 0.006666666666666666, 0.009333333333333332, 0.006666666666666666
1399, 0.006666666666666666, 0.009333333333333332, 0.008
1400, 0.006666666666666666, 0.009333333333333332, 0.009333333333333332
1401, 0.006666666666666666, 0.009333333333333332, 0.010666666666666666
1402, 0.006666666666666666, 0.009333333333333332, 0.012
1403, 0.006666666666666666, 0.009333333333333332, 0.013333333333333332
1404, 0.006666666666666666, 0.009333333333333332, 0.014666666666666666
1405, 0.006666666666666666, 0.009333333333333332, 0.016
1406, 0.006666666666666666, 0.009333333333333332, 0.017333333333333333
1407, 0.006666666666666666, 0.009333333333333332, 0.018666666666666665
1408, 0.006666666666666666, 0.009333333333333332, 0.02
1409, 0.006666666666666666, 0.010666666666666666, 0.0013333333333333333
1410, 0.006666666666666666, 0.010666666666666666, 0.0
1411, 0.006666666666666666, 0.010666666666666666, 0.0026666666666666666
1412, 0.006666666666666666, 0.010666666666666666, 0.004
1413, 0.006666666666666666, 0.010666666666666666, 0.005333333333333333
1414, 0.006666666666666666, 0.010666666666666666, 0.006666666666666666
1415, 0.006666666666666666, 0.010666666666666666, 0.008
1416, 0.006666666666666666, 0.010666666666666666, 0.009333333333333332
1417, 0.006666666666666666, 0.010666666666666666, 0.010666666666666666
1418, 0.006666666666666666, 0.010666666666666666, 0.012
1419, 0.006666666666666666, 0.010666666666666666, 0.013333333333333332
1420, 0.006666666666666666, 0.010666666666666666, 0.014666666666666666
1421, 0.006666666666666666, 0.010666666666666666, 0.016
1422, 0.006666666666666666, 0.010666666666666666, 0.017333333333333333
1423, 0.006666666666666666, 0.010666666666666666, 0.018666666666666665
1424, 0.006666666666666666, 0.010666666666666666, 0.02
1425, 0.006666666666666666, 0.012, 0.0013333333333333333
1426, 0.006666666666666666, 0.012, 0.0
1427, 0.006666666666666666, 0.012, 0.0026666666666666666
1428, 0.006666666666666666, 0.012, 0.004
1429, 0.006666666666666666, 0.012, 0.005333333333333333
1430, 0.006666666666666666, 0.012, 0.006666666666666666
1431, 0.006666666666666666, 0.012, 0.008
1432, 0.006666666666666666, 0.012, 0.009333333333333332
1433, 0.006666666666666666, 0.012, 0.010666666666666666
1434, 0.006666666666666666, 0.012, 0.012
1435, 0.006666666666666666, 0.012, 0.013333333333333332
1436, 0.006666666666666666, 0.012, 0.014666666666666666
1437, 0.006666666666666666, 0.012, 0.016
1438, 0.006666666666666666, 0.012, 0.017333333333333333
1439, 0.006666666666666666, 0.012, 0.018666666666666665
1440, 0.006666666666666666, 0.012, 0.02
1441, 0.006666666666666666, 0.013333333333333332, 0.0013333333333333333
1442, 0.006666666666666666, 0.013333333333333332, 0.0
1443, 0.006666666666666666, 0.013333333333333332, 0.0026666666666666666
1444, 0.006666666666666666, 0.013333333333333332, 0.004
1445, 0.006666666666666666, 0.013333333333333332, 0.005333333333333333
1446, 0.006666666666666666, 0.013333333333333332, 0.006666666666666666
1447, 0.006666666666666666, 0.013333333333333332, 0.008
1448, 0.006666666666666666, 0.013333333333333332, 0.009333333333333332
1449, 0.006666666666666666, 0.013333333333333332, 0.010666666666666666
1450, 0.006666666666666666, 0.013333333333333332, 0.012
1451, 0.006666666666666666, 0.013333333333333332, 0.013333333333333332
1452, 0.006666666666666666, 0.013333333333333332, 0.014666666666666666
1453, 0.006666666666666666, 0.013333333333333332, 0.016
1454, 0.006666666666666666, 0.013333333333333332, 0.017333333333333333
1455, 0.006666666666666666, 0.013333333333333332, 0.018666666666666665
1456, 0.006666666666666666, 0.013333333333333332, 0.02
1457, 0.006666666666666666, 0.014666666666666666, 0.0013333333333333333
1458, 0.006666666666666666, 0.014666666666666666, 0.0
1459, 0.006666666666666666, 0.014666666666666666, 0.0026666666666666666
1460, 0.006666666666666666, 0.014666666666666666, 0.004
1461, 0.006666666666666666, 0.014666666666666666, 0.005333333333333333
1462, 0.006666666666666666, 0.014666666666666666, 0.006666666666666666
1463, 0.006666666666666666, 0.014666666666666666, 0.008
1464, 0.006666666666666666, 0.014666666666666666, 0.009333333333333332
1465, 0.006666666666666666, 0.014666666666666666, 0.010666666666666666
1466, 0.006666666666666666, 0.014666666666666666, 0.012
1467, 0.006666666666666666, 0.014666666666666666, 0.013333333333333332
1468, 0.006666666666666666, 0.014666666666666666, 0.014666666666666666
1469, 0.006666666666666666, 0.014666666666666666, 0.016
1470, 0.006666666666666666, 0.014666666666666666, 0.017333333333333333
1471, 0.006666666666666666, 0.014666666666666666, 0.018666666666666665
1472, 0.006666666666666666, 0.014666666666666666, 0.02
1473, 0.006666666666666666, 0.016, 0.0013333333333333333
1474, 0.006666666666666666, 0.016, 0.0
1475, 0.006666666666666666, 0.016, 0.0026666666666666666
1476, 0.006666666666666666, 0.016, 0.004
1477, 0.006666666666666666, 0.016, 0.005333333333333333
1478, 0.006666666666666666, 0.016, 0.006666666666666666
1479, 0.006666666666666666, 0.016, 0.008
1480, 0.006666666666666666, 0.016, 0.009333333333333332
1481, 0.006666666666666666, 0.016, 0.010666666666666666
1482, 0.006666666666666666, 0.016, 0.012
1483, 0.006666666666666666, 0.016, 0.013333333333333332
1484, 0.006666666666666666, 0.016, 0.014666666666666666
1485, 0.006666666666666666, 0.016, 0.016
1486, 0.006666666666666666, 0.016, 0.017333333333333333
1487, 0.006666666666666666, 0.016, 0.018666666666666665
1488, 0.006666666666666666, 0.016, 0.02
1489, 0.006666666666666666, 0.017333333333333333, 0.0013333333333333333
1490, 0.006666666666666666, 0.017333333333333333, 0.0
1491, 0.006666666666666666, 0.017333333333333333, 0.0026666666666666666
1492, 0.006666666666666666, 0.017333333333333333, 0.004
1493, 0.006666666666666666, 0.017333333333333333, 0.005333333333333333
1494, 0.006666666666666666, 0.017333333333333333, 0.006666666666666666
1495, 0.006666666666666666, 0.017333333333333333, 0.008
1496, 0.006666666666666666, 0.017333333333333333, 0.009333333333333332
1497, 0.006666666666666666, 0.017333333333333333, 0.010666666666666666
1498, 0.006666666666666666, 0.017333333333333333, 0.012
1499, 0.006666666666666666, 0.017333333333333333, 0.013333333333333332
1500, 0.006666666666666666, 0.017333333333333333, 0.014666666666666666
1501, 0.006666666666666666, 0.017333333333333333, 0.016
1502, 0.006666666666666666, 0.017333333333333333, 0.017333333333333333
1503, 0.006666666666666666, 0.017333333333333333, 0.018666666666666665
1504, 0.006666666666666666, 0.017333333333333333, 0.02
1505, 0.006666666666666666, 0.018666666666666665, 0.0013333333333333333
1506, 0.006666666666666666, 0.018666666666666665, 0.0
1507, 0.006666666666666666, 0.018666666666666665, 0.0026666666666666666
1508, 0.006666666666666666, 0.018666666666666665, 0.004
1509, 0.006666666666666666, 0.018666666666666665, 0.005333333333333333
1510, 0.006666666666666666, 0.018666666666666665, 0.006666666666666666
1511, 0.006666666666666666, 0.018666666666666665, 0.008
1512, 0.006666666666666666, 0.018666666666666665, 0.009333333333333332
1513, 0.006666666666666666, 0.018666666666666665, 0.010666666666666666
1514, 0.006666666666666666, 0.018666666666666665, 0.012
1515, 0.006666666666666666, 0.018666666666666665, 0.013333333333333332
1516, 0.006666666666666666, 0.018666666666666665, 0.014666666666666666
1517, 0.006666666666666666, 0.018666666666666665, 0.016
1518, 0.006666666666666666, 0.018666666666666665, 0.017333333333333333
1519, 0.006666666666666666, 0.018666666666666665, 0.018666666666666665
1520, 0.006666666666666666, 0.018666666666666665, 0.02
1521, 0.006666666666666666, 0.02, 0.0013333333333333333
1522, 0.006666666666666666, 0.02, 0.0
1523, 0.006666666666666666, 0.02, 0.0026666666666666666
1524, 0.006666666666666666, 0.02, 0.004
1525, 0.006666666666666666, 0.02, 0.005333333333333333
1526, 0.006666666666666666, 0.02, 0.006666666666666666
1527, 0.006666666666666666, 0.02, 0.008
1528, 0.006666666666666666, 0.02, 0.009333333333333332
1529, 0.006666666666666666, 0.02, 0.010666666666666666
1530, 0.006666666666666666, 0.02, 0.012
1531, 0.006666666666666666, 0.02, 0.013333333333333332
1532, 0.006666666666666666, 0.02, 0.014666666666666666
1533, 0.006666666666666666, 0.02, 0.016
1534, 0.006666666666666666, 0.02, 0.017333333333333333
1535, 0.006666666666666666, 0.02, 0.018666666666666665
1536, 0.006666666666666666, 0.02, 0.02
1537, 0.008, 0.0, 0.0013333333333333333
1538, 0.008, 0.0, 0.0
1539, 0.008, 0.0013333333333333333, 0.0013333333333333333
1540, 0.008, 0.0013333333333333333, 0.0
1541, 0.008, 0.0, 0.0026666666666666666
1542, 0.008, 0.0013333333333333333, 0.0026666666666666666
1543, 0.008, 0.0, 0.004
1544, 0.008, 0.0013333333333333333, 0.004
1545, 0.008, 0.0, 0.005333333333333333
1546, 0.008, 0.0013333333333333333, 0.005333333333333333
1547, 0.008, 0.0, 0.006666666666666666
1548, 0.008, 0.0013333333333333333, 0.006666666666666666
1549, 0.008, 0.0, 0.008
1550, 0.008, 0.0013333333333333333, 0.008
1551, 0.008, 0.0, 0.009333333333333332
1552, 0.008, 0.0013333333333333333, 0.009333333333333332
1553, 0.008, 0.0, 0.010666666666666666
1554, 0.008, 0.0013333333333333333, 0.010666666666666666
1555, 0.008, 0.0, 0.012
1556, 0.008, 0.0013333333333333333, 0.012
1557, 0.008, 0.0, 0.013333333333333332
1558, 0.008, 0.0013333333333333333, 0.013333333333333332
1559, 0.008, 0.0, 0.014666666666666666
1560, 0.008, 0.0013333333333333333, 0.014666666666666666
1561, 0.008, 0.0, 0.016
1562, 0.008, 0.0013333333333333333, 0.016
1563, 0.008, 0.0, 0.017333333333333333
1564, 0.008, 0.0013333333333333333, 0.017333333333333333
1565, 0.008, 0.0, 0.018666666666666665
1566, 0.008, 0.0013333333333333333, 0.018666666666666665
1567, 0.008, 0.0, 0.02
1568, 0.008, 0.0013333333333333333, 0.02
1569, 0.008, 0.0026666666666666666, 0.0013333333333333333
1570, 0.008, 0.0026666666666666666, 0.0
1571, 0.008, 0.0026666666666666666, 0.0026666666666666666
1572, 0.008, 0.0026666666666666666, 0.004
1573, 0.008, 0.0026666666666666666, 0.005333333333333333
1574, 0.008, 0.0026666666666666666, 0.006666666666666666
1575, 0.008, 0.0026666666666666666, 0.008
1576, 0.008, 0.0026666666666666666, 0.009333333333333332
1577, 0.008, 0.0026666666666666666, 0.010666666666666666
1578, 0.008, 0.0026666666666666666, 0.012
1579, 0.008, 0.0026666666666666666, 0.013333333333333332
1580, 0.008, 0.0026666666666666666, 0.014666666666666666
1581, 0.008, 0.0026666666666666666, 0.016
1582, 0.008, 0.0026666666666666666, 0.017333333333333333
1583, 0.008, 0.0026666666666666666, 0.018666666666666665
1584, 0.008, 0.0026666666666666666, 0.02
1585, 0.008, 0.004, 0.0013333333333333333
1586, 0.008, 0.004, 0.0
1587, 0.008, 0.004, 0.0026666666666666666
1588, 0.008, 0.004, 0.004
1589, 0.008, 0.004, 0.005333333333333333
1590, 0.008, 0.004, 0.006666666666666666
1591, 0.008, 0.004, 0.008
1592, 0.008, 0.004, 0.009333333333333332
1593, 0.008, 0.004, 0.010666666666666666
1594, 0.008, 0.004, 0.012
1595, 0.008, 0.004, 0.013333333333333332
1596, 0.008, 0.004, 0.014666666666666666
1597, 0.008, 0.004, 0.016
1598, 0.008, 0.004, 0.017333333333333333
1599, 0.008, 0.004, 0.018666666666666665
1600, 0.008, 0.004, 0.02
1601, 0.008, 0.005333333333333333, 0.0013333333333333333
1602, 0.008, 0.005333333333333333, 0.0
1603, 0.008, 0.005333333333333333, 0.0026666666666666666
1604, 0.008, 0.005333333333333333, 0.004
1605, 0.008, 0.005333333333333333, 0.005333333333333333
1606, 0.008, 0.005333333333333333, 0.006666666666666666
1607, 0.008, 0.005333333333333333, 0.008
1608, 0.008, 0.005333333333333333, 0.009333333333333332
1609, 0.008, 0.005333333333333333, 0.010666666666666666
1610, 0.008, 0.005333333333333333, 0.012
1611, 0.008, 0.005333333333333333, 0.013333333333333332
1612, 0.008, 0.005333333333333333, 0.014666666666666666
1613, 0.008, 0.005333333333333333, 0.016
1614, 0.008, 0.005333333333333333, 0.017333333333333333
1615, 0.008, 0.005333333333333333, 0.018666666666666665
1616, 0.008, 0.005333333333333333, 0.02
1617, 0.008, 0.006666666666666666, 0.0013333333333333333
1618, 0.008, 0.006666666666666666, 0.0
1619, 0.008, 0.006666666666666666, 0.0026666666666666666
1620, 0.008, 0.006666666666666666, 0.004
1621, 0.008, 0.006666666666666666, 0.005333333333333333
1622, 0.008, 0.006666666666666666, 0.006666666666666666
1623, 0.008, 0.006666666666666666, 0.008
1624, 0.008, 0.006666666666666666, 0.009333333333333332
1625, 0.008, 0.006666666666666666, 0.010666666666666666
1626, 0.008, 0.006666666666666666, 0.012
1627, 0.008, 0.006666666666666666, 0.013333333333333332
1628, 0.008, 0.006666666666666666, 0.014666666666666666
1629, 0.008, 0.006666666666666666, 0.016
1630, 0.008, 0.006666666666666666, 0.017333333333333333
1631, 0.008, 0.006666666666666666, 0.018666666666666665
1632, 0.008, 0.006666666666666666, 0.02
1633, 0.008, 0.008, 0.0013333333333333333
1634, 0.008, 0.008, 0.0
1635, 0.008, 0.008, 0.0026666666666666666
1636, 0.008, 0.008, 0.004
1637, 0.008, 0.008, 0.005333333333333333
1638, 0.008, 0.008, 0.006666666666666666
1639, 0.008, 0.008, 0.008
1640, 0.008, 0.008, 0.009333333333333332
1641, 0.008, 0.008, 0.010666666666666666
1642, 0.008, 0.008, 0.012
1643, 0.008, 0.008, 0.013333333333333332
1644, 0.008, 0.008, 0.014666666666666666
1645, 0.008, 0.008, 0.016
1646, 0.008, 0.008, 0.017333333333333333
1647, 0.008, 0.008, 0.018666666666666665
1648, 0.008, 0.008, 0.02
1649, 0.008, 0.009333333333333332, 0.0013333333333333333
1650, 0.008, 0.009333333333333332, 0.0
1651, 0.008, 0.009333333333333332, 0.0026666666666666666
1652, 0.008, 0.009333333333333332, 0.004
1653, 0.008, 0.009333333333333332, 0.005333333333333333
1654, 0.008, 0.009333333333333332, 0.006666666666666666
1655, 0.008, 0.009333333333333332, 0.008
1656, 0.008, 0.009333333333333332, 0.009333333333333332
1657, 0.008, 0.009333333333333332, 0.010666666666666666
1658, 0.008, 0.009333333333333332, 0.012
1659, 0.008, 0.009333333333333332, 0.013333333333333332
1660, 0.008, 0.009333333333333332, 0.014666666666666666
1661, 0.008, 0.009333333333333332, 0.016
1662, 0.008, 0.009333333333333332, 0.017333333333333333
1663, 0.008, 0.009333333333333332, 0.018666666666666665
1664, 0.008, 0.009333333333333332, 0.02
1665, 0.008, 0.010666666666666666, 0.0013333333333333333
1666, 0.008, 0.010666666666666666, 0.0
1667, 0.008, 0.010666666666666666, 0.0026666666666666666
1668, 0.008, 0.010666666666666666, 0.004
1669, 0.008, 0.010666666666666666, 0.005333333333333333
1670, 0.008, 0.010666666666666666, 0.006666666666666666
1671, 0.008, 0.010666666666666666, 0.008
1672, 0.008, 0.010666666666666666, 0.009333333333333332
1673, 0.008, 0.010666666666666666, 0.010666666666666666
1674, 0.008, 0.010666666666666666, 0.012
1675, 0.008, 0.010666666666666666, 0.013333333333333332
1676, 0.008, 0.010666666666666666, 0.014666666666666666
1677, 0.008, 0.010666666666666666, 0.016
1678, 0.008, 0.010666666666666666, 0.017333333333333333
1679, 0.008, 0.010666666666666666, 0.018666666666666665
1680, 0.008, 0.010666666666666666, 0.02
1681, 0.008, 0.012, 0.0013333333333333333
1682, 0.008, 0.012, 0.0
1683, 0.008, 0.012, 0.0026666666666666666
1684, 0.008, 0.012, 0.004
1685, 0.008, 0.012, 0.005333333333333333
1686, 0.008, 0.012, 0.006666666666666666
1687, 0.008, 0.012, 0.008
1688, 0.008, 0.012, 0.009333333333333332
1689, 0.008, 0.012, 0.010666666666666666
1690, 0.008, 0.012, 0.012
1691, 0.008, 0.012, 0.013333333333333332
1692, 0.008, 0.012, 0.014666666666666666
1693, 0.008, 0.012, 0.016
1694, 0.008, 0.012, 0.017333333333333333
1695, 0.008, 0.012, 0.018666666666666665
1696, 0.008, 0.012, 0.02
1697, 0.008, 0.013333333333333332, 0.0013333333333333333
1698, 0.008, 0.013333333333333332, 0.0
1699, 0.008, 0.013333333333333332, 0.0026666666666666666
1700, 0.008, 0.013333333333333332, 0.004
1701, 0.008, 0.013333333333333332, 0.005333333333333333
1702, 0.008, 0.013333333333333332, 0.006666666666666666
1703, 0.008, 0.013333333333333332, 0.008
1704, 0.008, 0.013333333333333332, 0.009333333333333332
1705, 0.008, 0.013333333333333332, 0.010666666666666666
1706, 0.008, 0.013333333333333332, 0.012
1707, 0.008, 0.013333333333333332, 0.013333333333333332
1708, 0.008, 0.013333333333333332, 0.014666666666666666
1709, 0.008, 0.013333333333333332, 0.016
1710, 0.008, 0.013333333333333332, 0.017333333333333333
1711, 0.008, 0.013333333333333332, 0.018666666666666665
1712, 0.008, 0.013333333333333332, 0.02
1713, 0.008, 0.014666666666666666, 0.0013333333333333333
1714, 0.008, 0.014666666666666666, 0.0
1715, 0.008, 0.014666666666666666, 0.0026666666666666666
1716, 0.008, 0.014666666666666666, 0.004
1717, 0.008, 0.014666666666666666, 0.005333333333333333
1718, 0.008, 0.014666666666666666, 0.006666666666666666
1719, 0.008, 0.014666666666666666, 0.008
1720, 0.008, 0.014666666666666666, 0.009333333333333332
1721, 0.008, 0.014666666666666666, 0.010666666666666666
1722, 0.008, 0.014666666666666666, 0.012
1723, 0.008, 0.014666666666666666, 0.013333333333333332
1724, 0.008, 0.014666666666666666, 0.014666666666666666
1725, 0.008, 0.014666666666666666, 0.016
1726, 0.008, 0.014666666666666666, 0.017333333333333333
1727, 0.008, 0.014666666666666666, 0.018666666666666665
1728, 0.008, 0.014666666666666666, 0.02
1729, 0.008, 0.016, 0.0013333333333333333
1730, 0.008, 0.016, 0.0
1731, 0.008, 0.016, 0.0026666666666666666
1732, 0.008, 0.016, 0.004
1733, 0.008, 0.016, 0.005333333333333333
1734, 0.008, 0.016, 0.006666666666666666
1735, 0.008, 0.016, 0.008
1736, 0.008, 0.016, 0.009333333333333332
1737, 0.008, 0.016, 0.010666666666666666
1738, 0.008, 0.016, 0.012
1739, 0.008, 0.016, 0.013333333333333332
1740, 0.008, 0.016, 0.014666666666666666
1741, 0.008, 0.016, 0.016
1742, 0.008, 0.016, 0.017333333333333333
1743, 0.008, 0.016, 0.018666666666666665
1744, 0.008, 0.016, 0.02
1745, 0.008, 0.017333333333333333, 0.0013333333333333333
1746, 0.008, 0.017333333333333333, 0.0
1747, 0.008, 0.017333333333333333, 0.0026666666666666666
1748, 0.008, 0.017333333333333333, 0.004
1749, 0.008, 0.017333333333333333, 0.005333333333333333
1750, 0.008, 0.017333333333333333, 0.006666666666666666
1751, 0.008, 0.017333333333333333, 0.008
1752, 0.008, 0.017333333333333333, 0.009333333333333332
1753, 0.008, 0.017333333333333333, 0.010666666666666666
1754, 0.008, 0.017333333333333333, 0.012
1755, 0.008, 0.017333333333333333, 0.013333333333333332
1756, 0.008, 0.017333333333333333, 0.014666666666666666
1757, 0.008, 0.017333333333333333, 0.016
1758, 0.008, 0.017333333333333333, 0.017333333333333333
1759, 0.008, 0.017333333333333333, 0.018666666666666665
1760, 0.008, 0.017333333333333333, 0.02
1761, 0.008, 0.018666666666666665, 0.0013333333333333333
1762, 0.008, 0.018666666666666665, 0.0
1763, 0.008, 0.018666666666666665, 0.0026666666666666666
1764, 0.008, 0.018666666666666665, 0.004
1765, 0.008, 0.018666666666666665, 0.005333333333333333
1766, 0.008, 0.018666666666666665, 0.006666666666666666
1767, 0.008, 0.018666666666666665, 0.008
1768, 0.008, 0.018666666666666665, 0.009333333333333332
1769, 0.008, 0.018666666666666665, 0.010666666666666666
1770, 0.008, 0.018666666666666665, 0.012
1771, 0.008, 0.018666666666666665, 0.013333333333333332
1772, 0.008, 0.018666666666666665, 0.014666666666666666
1773, 0.008, 0.018666666666666665, 0.016
1774, 0.008, 0.018666666666666665, 0.017333333333333333
1775, 0.008, 0.018666666666666665, 0.018666666666666665
1776, 0.008, 0.018666666666666665, 0.02
1777, 0.008, 0.02, 0.0013333333333333333
1778, 0.008, 0.02, 0.0
1779, 0.008, 0.02, 0.0026666666666666666
1780, 0.008, 0.02, 0.004
1781, 0.008, 0.02, 0.005333333333333333
1782, 0.008, 0.02, 0.006666666666666666
1783, 0.008, 0.02, 0.008
1784, 0.008, 0.02, 0.009333333333333332
1785, 0.008, 0.02, 0.010666666666666666
1786, 0.008, 0.02, 0.012
1787, 0.008, 0.02, 0.013333333333333332
1788, 0.008, 0.02, 0.014666666666666666
1789, 0.008, 0.02, 0.016
1790, 0.008, 0.02, 0.017333333333333333
1791, 0.008, 0.02, 0.018666666666666665
1792, 0.008, 0.02, 0.02
1793, 0.009333333333333332, 0.0, 0.0013333333333333333
1794, 0.009333333333333332, 0.0, 0.0
1795, 0.009333333333333332, 0.0013333333333333333, 0.0013333333333333333
1796, 0.009333333333333332, 0.0013333333333333333, 0.0
1797, 0.009333333333333332, 0.0, 0.0026666666666666666
1798, 0.009333333333333332, 0.0013333333333333333, 0.0026666666666666666
1799, 0.009333333333333332, 0.0, 0.004
1800, 0.009333333333333332, 0.0013333333333333333, 0.004
1801, 0.009333333333333332, 0.0, 0.005333333333333333
1802, 0.009333333333333332, 0.0013333333333333333, 0.005333333333333333
1803, 0.009333333333333332, 0.0, 0.006666666666666666
1804, 0.009333333333333332, 0.0013333333333333333, 0.006666666666666666
1805, 0.009333333333333332, 0.0, 0.008
1806, 0.009333333333333332, 0.0013333333333333333, 0.008
1807, 0.009333333333333332, 0.0, 0.009333333333333332
1808, 0.009333333333333332, 0.0013333333333333333, 0.009333333333333332
1809, 0.009333333333333332, 0.0, 0.010666666666666666
1810, 0.009333333333333332, 0.0013333333333333333, 0.010666666666666666
1811, 0.009333333333333332, 0.0, 0.012
1812, 0.009333333333333332, 0.0013333333333333333, 0.012
1813, 0.009333333333333332, 0.0, 0.013333333333333332
1814, 0.009333333333333332, 0.0013333333333333333, 0.013333333333333332
1815, 0.009333333333333332, 0.0, 0.014666666666666666
1816, 0.009333333333333332, 0.0013333333333333333, 0.014666666666666666
1817, 0.009333333333333332, 0.0, 0.016
1818, 0.009333333333333332, 0.0013333333333333333, 0.016
1819, 0.009333333333333332, 0.0, 0.017333333333333333
1820, 0.009333333333333332, 0.0013333333333333333, 0.017333333333333333
1821, 0.009333333333333332, 0.0, 0.018666666666666665
1822, 0.009333333333333332, 0.0013333333333333333, 0.018666666666666665
1823, 0.009333333333333332, 0.0, 0.02
1824, 0.009333333333333332, 0.0013333333333333333, 0.02
1825, 0.009333333333333332, 0.0026666666666666666, 0.0013333333333333333
1826, 0.009333333333333332, 0.0026666666666666666, 0.0
1827, 0.009333333333333332, 0.0026666666666666666, 0.0026666666666666666
1828, 0.009333333333333332, 0.0026666666666666666, 0.004
1829, 0.009333333333333332, 0.0026666666666666666, 0.005333333333333333
1830, 0.009333333333333332, 0.0026666666666666666, 0.006666666666666666
1831, 0.009333333333333332, 0.0026666666666666666, 0.008
1832, 0.009333333333333332, 0.0026666666666666666, 0.009333333333333332
1833, 0.009333333333333332, 0.0026666666666666666, 0.010666666666666666
1834, 0.009333333333333332, 0.0026666666666666666, 0.012
1835, 0.009333333333333332, 0.0026666666666666666, 0.013333333333333332
1836, 0.009333333333333332, 0.0026666666666666666, 0.014666666666666666
1837, 0.009333333333333332, 0.0026666666666666666, 0.016
1838, 0.009333333333333332, 0.0026666666666666666, 0.017333333333333333
1839, 0.009333333333333332, 0.0026666666666666666, 0.018666666666666665
1840, 0.009333333333333332, 0.0026666666666666666, 0.02
1841, 0.009333333333333332, 0.004, 0.0013333333333333333
1842, 0.009333333333333332, 0.004, 0.0
1843, 0.009333333333333332, 0.004, 0.0026666666666666666
1844, 0.009333333333333332, 0.004, 0.004
1845, 0.009333333333333332, 0.004, 0.005333333333333333
1846, 0.009333333333333332, 0.004, 0.006666666666666666
1847, 0.009333333333333332, 0.004, 0.008
1848, 0.009333333333333332, 0.004, 0.009333333333333332
1849, 0.009333333333333332, 0.004, 0.010666666666666666
1850, 0.009333333333333332, 0.004, 0.012
1851, 0.009333333333333332, 0.004, 0.013333333333333332
1852, 0.009333333333333332, 0.004, 0.014666666666666666
1853, 0.009333333333333332, 0.004, 0.016
1854, 0.009333333333333332, 0.004, 0.017333333333333333
1855, 0.009333333333333332, 0.004, 0.018666666666666665
1856, 0.009333333333333332, 0.004, 0.02
1857, 0.009333333333333332, 0.005333333333333333, 0.0013333333333333333
1858, 0.009333333333333332, 0.005333333333333333, 0.0
1859, 0.009333333333333332, 0.005333333333333333, 0.0026666666666666666
1860, 0.009333333333333332, 0.005333333333333333, 0.004
1861, 0.009333333333333332, 0.005333333333333333, 0.005333333333333333
1862, 0.009333333333333332, 0.005333333333333333, 0.006666666666666666
1863, 0.009333333333333332, 0.005333333333333333, 0.008
1864, 0.009333333333333332, 0.005333333333333333, 0.009333333333333332
1865, 0.009333333333333332, 0.005333333333333333, 0.010666666666666666
1866, 0.009333333333333332, 0.005333333333333333, 0.012
1867, 0.009333333333333332, 0.005333333333333333, 0.013333333333333332
1868, 0.009333333333333332, 0.005333333333333333, 0.014666666666666666
1869, 0.009333333333333332, 0.005333333333333333, 0.016
1870, 0.009333333333333332, 0.005333333333333333, 0.017333333333333333
1871, 0.009333333333333332, 0.005333333333333333, 0.018666666666666665
1872, 0.009333333333333332, 0.005333333333333333, 0.02
1873, 0.009333333333333332, 0.006666666666666666, 0.0013333333333333333
1874, 0.009333333333333332, 0.006666666666666666, 0.0
1875, 0.009333333333333332, 0.006666666666666666, 0.0026666666666666666
1876, 0.009333333333333332, 0.006666666666666666, 0.004
1877, 0.009333333333333332, 0.006666666666666666, 0.005333333333333333
1878, 0.009333333333333332, 0.006666666666666666, 0.006666666666666666
1879, 0.009333333333333332, 0.006666666666666666, 0.008
1880, 0.009333333333333332, 0.006666666666666666, 0.009333333333333332
1881, 0.009333333333333332, 0.006666666666666666, 0.010666666666666666
1882, 0.009333333333333332, 0.006666666666666666, 0.012
1883, 0.009333333333333332, 0.006666666666666666, 0.013333333333333332
1884, 0.009333333333333332, 0.006666666666666666, 0.014666666666666666
1885, 0.009333333333333332, 0.006666666666666666, 0.016
1886, 0.009333333333333332, 0.006666666666666666, 0.017333333333333333
1887, 0.009333333333333332, 0.006666666666666666, 0.018666666666666665
1888, 0.009333333333333332, 0.006666666666666666, 0.02
1889, 0.009333333333333332, 0.008, 0.0013333333333333333
1890, 0.009333333333333332, 0.008, 0.0
1891, 0.009333333333333332, 0.008, 0.0026666666666666666
1892, 0.009333333333333332, 0.008, 0.004
1893, 0.009333333333333332, 0.008, 0.005333333333333333
1894, 0.009333333333333332, 0.008, 0.006666666666666666
1895, 0.009333333333333332, 0.008, 0.008
1896, 0.009333333333333332, 0.008, 0.009333333333333332
1897, 0.009333333333333332, 0.008, 0.010666666666666666
1898, 0.009333333333333332, 0.008, 0.012
1899, 0.009333333333333332, 0.008, 0.013333333333333332
1900, 0.009333333333333332, 0.008, 0.014666666666666666
1901, 0.009333333333333332, 0.008, 0.016
1902, 0.009333333333333332, 0.008, 0.017333333333333333
1903, 0.009333333333333332, 0.008, 0.018666666666666665
1904, 0.009333333333333332, 0.008, 0.02
1905, 0.009333333333333332, 0.009333333333333332, 0.0013333333333333333
1906, 0.009333333333333332, 0.009333333333333332, 0.0
1907, 0.009333333333333332, 0.009333333333333332, 0.0026666666666666666
1908, 0.009333333333333332, 0.009333333333333332, 0.004
1909, 0.009333333333333332, 0.009333333333333332, 0.005333333333333333
1910, 0.009333333333333332, 0.009333333333333332, 0.006666666666666666
1911, 0.009333333333333332, 0.009333333333333332, 0.008
1912, 0.009333333333333332, 0.009333333333333332, 0.009333333333333332
1913, 0.009333333333333332, 0.009333333333333332, 0.010666666666666666
1914, 0.009333333333333332, 0.009333333333333332, 0.012
1915, 0.009333333333333332, 0.009333333333333332, 0.013333333333333332
1916, 0.009333333333333332, 0.009333333333333332, 0.014666666666666666
1917, 0.009333333333333332, 0.009333333333333332, 0.016
1918, 0.009333333333333332, 0.009333333333333332, 0.017333333333333333
1919, 0.009333333333333332, 0.009333333333333332, 0.018666666666666665
1920, 0.009333333333333332, 0.009333333333333332, 0.02
1921, 0.009333333333333332, 0.010666666666666666, 0.0013333333333333333
1922, 0.009333333333333332, 0.010666666666666666, 0.0
1923, 0.009333333333333332, 0.010666666666666666, 0.0026666666666666666
1924, 0.009333333333333332, 0.010666666666666666, 0.004
1925, 0.009333333333333332, 0.010666666666666666, 0.005333333333333333
1926, 0.009333333333333332, 0.010666666666666666, 0.006666666666666666
1927, 0.009333333333333332, 0.010666666666666666, 0.008
1928, 0.009333333333333332, 0.010666666666666666, 0.009333333333333332
1929, 0.009333333333333332, 0.010666666666666666, 0.010666666666666666
1930, 0.009333333333333332, 0.010666666666666666, 0.012
1931, 0.009333333333333332, 0.010666666666666666, 0.013333333333333332
1932, 0.009333333333333332, 0.010666666666666666, 0.014666666666666666
1933, 0.009333333333333332, 0.010666666666666666, 0.016
1934, 0.009333333333333332, 0.010666666666666666, 0.017333333333333333
1935, 0.009333333333333332, 0.010666666666666666, 0.018666666666666665
1936, 0.009333333333333332, 0.010666666666666666, 0.02
1937, 0.009333333333333332, 0.012, 0.0013333333333333333
1938, 0.009333333333333332, 0.012, 0.0
1939, 0.009333333333333332, 0.012, 0.0026666666666666666
1940, 0.009333333333333332, 0.012, 0.004
1941, 0.009333333333333332, 0.012, 0.005333333333333333
1942, 0.009333333333333332, 0.012, 0.006666666666666666
1943, 0.009333333333333332, 0.012, 0.008
1944, 0.009333333333333332, 0.012, 0.009333333333333332
1945, 0.009333333333333332, 0.012, 0.010666666666666666
1946, 0.009333333333333332, 0.012, 0.012
1947, 0.009333333333333332, 0.012, 0.013333333333333332
1948, 0.009333333333333332, 0.012, 0.014666666666666666
1949, 0.009333333333333332, 0.012, 0.016
1950, 0.009333333333333332, 0.012, 0.017333333333333333
1951, 0.009333333333333332, 0.012, 0.018666666666666665
1952, 0.009333333333333332, 0.012, 0.02
1953, 0.009333333333333332, 0.013333333333333332, 0.0013333333333333333
1954, 0.009333333333333332, 0.013333333333333332, 0.0
1955, 0.009333333333333332, 0.013333333333333332, 0.0026666666666666666
1956, 0.009333333333333332, 0.013333333333333332, 0.004
1957, 0.009333333333333332, 0.013333333333333332, 0.005333333333333333
1958, 0.009333333333333332, 0.013333333333333332, 0.006666666666666666
1959, 0.009333333333333332, 0.013333333333333332, 0.008
1960, 0.009333333333333332, 0.013333333333333332, 0.009333333333333332
1961, 0.009333333333333332, 0.013333333333333332, 0.010666666666666666
1962, 0.009333333333333332, 0.013333333333333332, 0.012
1963, 0.009333333333333332, 0.013333333333333332, 0.013333333333333332
1964, 0.009333333333333332, 0.013333333333333332, 0.014666666666666666
1965, 0.009333333333333332, 0.013333333333333332, 0.016
1966, 0.009333333333333332, 0.013333333333333332, 0.017333333333333333
1967, 0.009333333333333332, 0.013333333333333332, 0.018666666666666665
1968, 0.009333333333333332, 0.013333333333333332, 0.02
1969, 0.009333333333333332, 0.014666666666666666, 0.0013333333333333333
1970, 0.009333333333333332, 0.014666666666666666, 0.0
1971, 0.009333333333333332, 0.014666666666666666, 0.0026666666666666666
1972, 0.009333333333333332, 0.014666666666666666, 0.004
1973, 0.009333333333333332, 0.014666666666666666, 0.005333333333333333
1974, 0.009333333333333332, 0.014666666666666666, 0.006666666666666666
1975, 0.009333333333333332, 0.014666666666666666, 0.008
1976, 0.009333333333333332, 0.014666666666666666, 0.009333333333333332
1977, 0.009333333333333332, 0.014666666666666666, 0.010666666666666666
1978, 0.009333333333333332, 0.014666666666666666, 0.012
1979, 0.009333333333333332, 0.014666666666666666, 0.013333333333333332
1980, 0.009333333333333332, 0.014666666666666666, 0.014666666666666666
1981, 0.009333333333333332, 0.014666666666666666, 0.016
1982, 0.009333333333333332, 0.014666666666666666, 0.017333333333333333
1983, 0.009333333333333332, 0.014666666666666666, 0.018666666666666665
1984, 0.009333333333333332, 0.014666666666666666, 0.02
1985, 0.009333333333333332, 0.016, 0.0013333333333333333
1986, 0.009333333333333332, 0.016, 0.0
1987, 0.009333333333333332, 0.016, 0.0026666666666666666
1988, 0.009333333333333332, 0.016, 0.004
1989, 0.009333333333333332, 0.016, 0.005333333333333333
1990, 0.009333333333333332, 0.016, 0.006666666666666666
1991, 0.009333333333333332, 0.016, 0.008
1992, 0.009333333333333332, 0.016, 0.009333333333333332
1993, 0.009333333333333332, 0.016, 0.010666666666666666
1994, 0.009333333333333332, 0.016, 0.012
1995, 0.009333333333333332, 0.016, 0.013333333333333332
1996, 0.009333333333333332, 0.016, 0.014666666666666666
1997, 0.009333333333333332, 0.016, 0.016
1998, 0.009333333333333332, 0.016, 0.017333333333333333
1999, 0.009333333333333332, 0.016, 0.018666666666666665
2000, 0.009333333333333332, 0.016, 0.02
2001, 0.009333333333333332, 0.017333333333333333, 0.0013333333333333333
2002, 0.009333333333333332, 0.017333333333333333, 0.0
2003, 0.009333333333333332, 0.017333333333333333, 0.0026666666666666666
2004, 0.009333333333333332, 0.017333333333333333, 0.004
2005, 0.009333333333333332, 0.017333333333333333, 0.005333333333333333
2006, 0.009333333333333332, 0.017333333333333333, 0.006666666666666666
2007, 0.009333333333333332, 0.017333333333333333, 0.008
2008, 0.009333333333333332, 0.017333333333333333, 0.009333333333333332
2009, 0.009333333333333332, 0.017333333333333333, 0.010666666666666666
2010, 0.009333333333333332, 0.017333333333333333, 0.012
2011, 0.009333333333333332, 0.017333333333333333, 0.013333333333333332
2012, 0.009333333333333332, 0.017333333333333333, 0.014666666666666666
2013, 0.009333333333333332, 0.017333333333333333, 0.016
2014, 0.009333333333333332, 0.017333333333333333, 0.017333333333333333
2015, 0.009333333333333332, 0.017333333333333333, 0.018666666666666665
2016, 0.009333333333333332, 0.017333333333333333, 0.02
2017, 0.009333333333333332, 0.018666666666666665, 0.0013333333333333333
2018, 0.009333333333333332, 0.018666666666666665, 0.0
2019, 0.009333333333333332, 0.018666666666666665, 0.0026666666666666666
2020, 0.009333333333333332, 0.018666666666666665, 0.004
2021, 0.009333333333333332, 0.018666666666666665, 0.005333333333333333
2022, 0.009333333333333332, 0.018666666666666665, 0.006666666666666666
2023, 0.009333333333333332, 0.018666666666666665, 0.008
2024, 0.009333333333333332, 0.018666666666666665, 0.009333333333333332
2025, 0.009333333333333332, 0.018666666666666665, 0.010666666666666666
2026, 0.009333333333333332, 0.018666666666666665, 0.012
2027, 0.009333333333333332, 0.018666666666666665, 0.013333333333333332
2028, 0.009333333333333332, 0.018666666666666665, 0.014666666666666666
2029, 0.009333333333333332, 0.018666666666666665, 0.016
2030, 0.009333333333333332, 0.018666666666666665, 0.017333333333333333
2031, 0.009333333333333332, 0.018666666666666665, 0.018666666666666665
2032, 0.009333333333333332, 0.018666666666666665, 0.02
2033, 0.009333333333333332, 0.02, 0.0013333333333333333
2034, 0.009333333333333332, 0.02, 0.0
2035, 0.009333333333333332, 0.02, 0.0026666666666666666
2036, 0.009333333333333332, 0.02, 0.004
2037, 0.009333333333333332, 0.02, 0.005333333333333333
2038, 0.009333333333333332, 0.02, 0.006666666666666666
2039, 0.009333333333333332, 0.02, 0.008
2040, 0.009333333333333332, 0.02, 0.009333333333333332
2041, 0.009333333333333332, 0.02, 0.010666666666666666
2042, 0.009333333333333332, 0.02, 0.012
2043, 0.009333333333333332, 0.02, 0.013333333333333332
2044, 0.009333333333333332, 0.02, 0.014666666666666666
2045, 0.009333333333333332, 0.02, 0.016
2046, 0.009333333333333332, 0.02, 0.017333333333333333
2047, 0.009333333333333332, 0.02, 0.018666666666666665
2048, 0.009333333333333332, 0.02, 0.02
2049, 0.010666666666666666, 0.0, 0.0013333333333333333
2050, 0.010666666666666666, 0.0, 0.0
2051, 0.010666666666666666, 0.0013333333333333333, 0.0013333333333333333
2052, 0.010666666666666666, 0.0013333333333333333, 0.0
2053, 0.010666666666666666, 0.0, 0.0026666666666666666
2054, 0.010666666666666666, 0.0013333333333333333, 0.0026666666666666666
2055, 0.010666666666666666, 0.0, 0.004
2056, 0.010666666666666666, 0.0013333333333333333, 0.004
2057, 0.010666666666666666, 0.0, 0.005333333333333333
2058, 0.010666666666666666, 0.0013333333333333333, 0.005333333333333333
2059, 0.010666666666666666, 0.0, 0.006666666666666666
2060, 0.010666666666666666, 0.0013333333333333333, 0.006666666666666666
2061, 0.010666666666666666, 0.0, 0.008
2062, 0.010666666666666666, 0.0013333333333333333, 0.008
2063, 0.010666666666666666, 0.0, 0.009333333333333332
2064, 0.010666666666666666, 0.0013333333333333333, 0.009333333333333332
2065, 0.010666666666666666, 0.0, 0.010666666666666666
2066, 0.010666666666666666, 0.0013333333333333333, 0.010666666666666666
2067, 0.010666666666666666, 0.0, 0.012
2068, 0.010666666666666666, 0.0013333333333333333, 0.012
2069, 0.010666666666666666, 0.0, 0.013333333333333332
2070, 0.010666666666666666, 0.0013333333333333333, 0.013333333333333332
2071, 0.010666666666666666, 0.0, 0.014666666666666666
2072, 0.010666666666666666, 0.0013333333333333333, 0.014666666666666666
2073, 0.010666666666666666, 0.0, 0.016
2074, 0.010666666666666666, 0.0013333333333333333, 0.016
2075, 0.010666666666666666, 0.0, 0.017333333333333333
2076, 0.010666666666666666, 0.0013333333333333333, 0.017333333333333333
2077, 0.010666666666666666, 0.0, 0.018666666666666665
2078, 0.010666666666666666, 0.0013333333333333333, 0.018666666666666665
2079, 0.010666666666666666, 0.0, 0.02
2080, 0.010666666666666666, 0.0013333333333333333, 0.02
2081, 0.010666666666666666, 0.0026666666666666666, 0.0013333333333333333
2082, 0.010666666666666666, 0.0026666666666666666, 0.0
2083, 0.010666666666666666, 0.0026666666666666666, 0.0026666666666666666
2084, 0.010666666666666666, 0.0026666666666666666, 0.004
2085, 0.010666666666666666, 0.0026666666666666666, 0.005333333333333333
2086, 0.010666666666666666, 0.0026666666666666666, 0.006666666666666666
2087, 0.010666666666666666, 0.0026666666666666666, 0.008
2088, 0.010666666666666666, 0.0026666666666666666, 0.009333333333333332
2089, 0.010666666666666666, 0.0026666666666666666, 0.010666666666666666
2090, 0.010666666666666666, 0.0026666666666666666, 0.012
2091, 0.010666666666666666, 0.0026666666666666666, 0.013333333333333332
2092, 0.010666666666666666, 0.0026666666666666666, 0.014666666666666666
2093, 0.010666666666666666, 0.0026666666666666666, 0.016
2094, 0.010666666666666666, 0.0026666666666666666, 0.017333333333333333
2095, 0.010666666666666666, 0.0026666666666666666, 0.018666666666666665
2096, 0.010666666666666666, 0.0026666666666666666, 0.02
2097, 0.010666666666666666, 0.004, 0.0013333333333333333
2098, 0.010666666666666666, 0.004, 0.0
2099, 0.010666666666666666, 0.004, 0.0026666666666666666
2100, 0.010666666666666666, 0.004, 0.004
2101, 0.010666666666666666, 0.004, 0.005333333333333333
2102, 0.010666666666666666, 0.004, 0.006666666666666666
2103, 0.010666666666666666, 0.004, 0.008
2104, 0.010666666666666666, 0.004, 0.009333333333333332
2105, 0.010666666666666666, 0.004, 0.010666666666666666
2106, 0.010666666666666666, 0.004, 0.012
2107, 0.010666666666666666, 0.004, 0.013333333333333332
2108, 0.010666666666666666, 0.004, 0.014666666666666666
2109, 0.010666666666666666, 0.004, 0.016
2110, 0.010666666666666666, 0.004, 0.017333333333333333
2111, 0.010666666666666666, 0.004, 0.018666666666666665
2112, 0.010666666666666666, 0.004, 0.02
2113, 0.010666666666666666, 0.005333333333333333, 0.0013333333333333333
2114, 0.010666666666666666, 0.005333333333333333, 0.0
2115, 0.010666666666666666, 0.005333333333333333, 0.0026666666666666666
2116, 0.010666666666666666, 0.005333333333333333, 0.004
2117, 0.010666666666666666, 0.005333333333333333, 0.005333333333333333
2118, 0.010666666666666666, 0.005333333333333333, 0.006666666666666666
2119, 0.010666666666666666, 0.005333333333333333, 0.008
2120, 0.010666666666666666, 0.005333333333333333, 0.009333333333333332
2121, 0.010666666666666666, 0.005333333333333333, 0.010666666666666666
2122, 0.010666666666666666, 0.005333333333333333, 0.012
2123, 0.010666666666666666, 0.005333333333333333, 0.013333333333333332
2124, 0.010666666666666666, 0.005333333333333333, 0.014666666666666666
2125, 0.010666666666666666, 0.005333333333333333, 0.016
2126, 0.010666666666666666, 0.005333333333333333, 0.017333333333333333
2127, 0.010666666666666666, 0.005333333333333333, 0.018666666666666665
2128, 0.010666666666666666, 0.005333333333333333, 0.02
2129, 0.010666666666666666, 0.006666666666666666, 0.0013333333333333333
2130, 0.010666666666666666, 0.006666666666666666, 0.0
2131, 0.010666666666666666, 0.006666666666666666, 0.0026666666666666666
2132, 0.010666666666666666, 0.006666666666666666, 0.004
2133, 0.010666666666666666, 0.006666666666666666, 0.005333333333333333
2134, 0.010666666666666666, 0.006666666666666666, 0.006666666666666666
2135, 0.010666666666666666, 0.006666666666666666, 0.008
2136, 0.010666666666666666, 0.006666666666666666, 0.009333333333333332
2137, 0.010666666666666666, 0.006666666666666666, 0.010666666666666666
2138, 0.010666666666666666, 0.006666666666666666, 0.012
2139, 0.010666666666666666, 0.006666666666666666, 0.013333333333333332
2140, 0.010666666666666666, 0.006666666666666666, 0.014666666666666666
2141, 0.010666666666666666, 0.006666666666666666, 0.016
2142, 0.010666666666666666, 0.006666666666666666, 0.017333333333333333
2143, 0.010666666666666666, 0.006666666666666666, 0.018666666666666665
2144, 0.010666666666666666, 0.006666666666666666, 0.02
2145, 0.010666666666666666, 0.008, 0.0013333333333333333
2146, 0.010666666666666666, 0.008, 0.0
2147, 0.010666666666666666, 0.008, 0.0026666666666666666
2148, 0.010666666666666666, 0.008, 0.004
2149, 0.010666666666666666, 0.008, 0.005333333333333333
2150, 0.010666666666666666, 0.008, 0.006666666666666666
2151, 0.010666666666666666, 0.008, 0.008
2152, 0.010666666666666666, 0.008, 0.009333333333333332
2153, 0.010666666666666666, 0.008, 0.010666666666666666
2154, 0.010666666666666666, 0.008, 0.012
2155, 0.010666666666666666, 0.008, 0.013333333333333332
2156, 0.010666666666666666, 0.008, 0.014666666666666666
2157, 0.010666666666666666, 0.008, 0.016
2158, 0.010666666666666666, 0.008, 0.017333333333333333
2159, 0.010666666666666666, 0.008, 0.018666666666666665
2160, 0.010666666666666666, 0.008, 0.02
2161, 0.010666666666666666, 0.009333333333333332, 0.0013333333333333333
2162, 0.010666666666666666, 0.009333333333333332, 0.0
2163, 0.010666666666666666, 0.009333333333333332, 0.0026666666666666666
2164, 0.010666666666666666, 0.009333333333333332, 0.004
2165, 0.010666666666666666, 0.009333333333333332, 0.005333333333333333
2166, 0.010666666666666666, 0.009333333333333332, 0.006666666666666666
2167, 0.010666666666666666, 0.009333333333333332, 0.008
2168, 0.010666666666666666, 0.009333333333333332, 0.009333333333333332
2169, 0.010666666666666666, 0.009333333333333332, 0.010666666666666666
2170, 0.010666666666666666, 0.009333333333333332, 0.012
2171, 0.010666666666666666, 0.009333333333333332, 0.013333333333333332
2172, 0.010666666666666666, 0.009333333333333332, 0.014666666666666666
2173, 0.010666666666666666, 0.009333333333333332, 0.016
2174, 0.010666666666666666, 0.009333333333333332, 0.017333333333333333
2175, 0.010666666666666666, 0.009333333333333332, 0.018666666666666665
2176, 0.010666666666666666, 0.009333333333333332, 0.02
2177, 0.010666666666666666, 0.010666666666666666, 0.0013333333333333333
2178, 0.010666666666666666, 0.010666666666666666, 0.0
2179, 0.010666666666666666, 0.010666666666666666, 0.0026666666666666666
2180, 0.010666666666666666, 0.010666666666666666, 0.004
2181, 0.010666666666666666, 0.010666666666666666, 0.005333333333333333
2182, 0.010666666666666666, 0.010666666666666666, 0.006666666666666666
2183, 0.010666666666666666, 0.010666666666666666, 0.008
2184, 0.010666666666666666, 0.010666666666666666, 0.009333333333333332
2185, 0.010666666666666666, 0.010666666666666666, 0.010666666666666666
2186, 0.010666666666666666, 0.010666666666666666, 0.012
2187, 0.010666666666666666, 0.010666666666666666, 0.013333333333333332
2188, 0.010666666666666666, 0.010666666666666666, 0.014666666666666666
2189, 0.010666666666666666, 0.010666666666666666, 0.016
2190, 0.010666666666666666, 0.010666666666666666, 0.017333333333333333
2191, 0.010666666666666666, 0.010666666666666666, 0.018666666666666665
2192, 0.010666666666666666, 0.010666666666666666, 0.02
2193, 0.010666666666666666, 0.012, 0.0013333333333333333
2194, 0.010666666666666666, 0.012, 0.0
2195, 0.010666666666666666, 0.012, 0.0026666666666666666
2196, 0.010666666666666666, 0.012, 0.004
2197, 0.010666666666666666, 0.012, 0.005333333333333333
2198, 0.010666666666666666, 0.012, 0.006666666666666666
2199, 0.010666666666666666, 0.012, 0.008
2200, 0.010666666666666666, 0.012, 0.009333333333333332
2201, 0.010666666666666666, 0.012, 0.010666666666666666
2202, 0.010666666666666666, 0.012, 0.012
2203, 0.010666666666666666, 0.012, 0.013333333333333332
2204, 0.010666666666666666, 0.012, 0.014666666666666666
2205, 0.010666666666666666, 0.012, 0.016
2206, 0.010666666666666666, 0.012, 0.017333333333333333
2207, 0.010666666666666666, 0.012, 0.018666666666666665
2208, 0.010666666666666666, 0.012, 0.02
2209, 0.010666666666666666, 0.013333333333333332, 0.0013333333333333333
2210, 0.010666666666666666, 0.013333333333333332, 0.0
2211, 0.010666666666666666, 0.013333333333333332, 0.0026666666666666666
2212, 0.010666666666666666, 0.013333333333333332, 0.004
2213, 0.010666666666666666, 0.013333333333333332, 0.005333333333333333
2214, 0.010666666666666666, 0.013333333333333332, 0.006666666666666666
2215, 0.010666666666666666, 0.013333333333333332, 0.008
2216, 0.010666666666666666, 0.013333333333333332, 0.009333333333333332
2217, 0.010666666666666666, 0.013333333333333332, 0.010666666666666666
2218, 0.010666666666666666, 0.013333333333333332, 0.012
2219, 0.010666666666666666, 0.013333333333333332, 0.013333333333333332
2220, 0.010666666666666666, 0.013333333333333332, 0.014666666666666666
2221, 0.010666666666666666, 0.013333333333333332, 0.016
2222, 0.010666666666666666, 0.013333333333333332, 0.017333333333333333
2223, 0.010666666666666666, 0.013333333333333332, 0.018666666666666665
2224, 0.010666666666666666, 0.013333333333333332, 0.02
2225, 0.010666666666666666, 0.014666666666666666, 0.0013333333333333333
2226, 0.010666666666666666, 0.014666666666666666, 0.0
2227, 0.010666666666666666, 0.014666666666666666, 0.0026666666666666666
2228, 0.010666666666666666, 0.014666666666666666, 0.004
2229, 0.010666666666666666, 0.014666666666666666, 0.005333333333333333
2230, 0.010666666666666666, 0.014666666666666666, 0.006666666666666666
2231, 0.010666666666666666, 0.014666666666666666, 0.008
2232, 0.010666666666666666, 0.014666666666666666, 0.009333333333333332
2233, 0.010666666666666666, 0.014666666666666666, 0.010666666666666666
2234, 0.010666666666666666, 0.014666666666666666, 0.012
2235, 0.010666666666666666, 0.014666666666666666, 0.013333333333333332
2236, 0.010666666666666666, 0.014666666666666666, 0.014666666666666666
2237, 0.010666666666666666, 0.014666666666666666, 0.016
2238, 0.010666666666666666, 0.014666666666666666, 0.017333333333333333
2239, 0.010666666666666666, 0.014666666666666666, 0.018666666666666665
2240, 0.010666666666666666, 0.014666666666666666, 0.02
2241, 0.010666666666666666, 0.016, 0.0013333333333333333
2242, 0.010666666666666666, 0.016, 0.0
2243, 0.010666666666666666, 0.016, 0.0026666666666666666
2244, 0.010666666666666666, 0.016, 0.004
2245, 0.010666666666666666, 0.016, 0.005333333333333333
2246, 0.010666666666666666, 0.016, 0.006666666666666666
2247, 0.010666666666666666, 0.016, 0.008
2248, 0.010666666666666666, 0.016, 0.009333333333333332
2249, 0.010666666666666666, 0.016, 0.010666666666666666
2250, 0.010666666666666666, 0.016, 0.012
2251, 0.010666666666666666, 0.016, 0.013333333333333332
2252, 0.010666666666666666, 0.016, 0.014666666666666666
2253, 0.010666666666666666, 0.016, 0.016
2254, 0.010666666666666666, 0.016, 0.017333333333333333
2255, 0.010666666666666666, 0.016, 0.018666666666666665
2256, 0.010666666666666666, 0.016, 0.02
2257, 0.010666666666666666, 0.017333333333333333, 0.0013333333333333333
2258, 0.010666666666666666, 0.017333333333333333, 0.0
2259, 0.010666666666666666, 0.017333333333333333, 0.0026666666666666666
2260, 0.010666666666666666, 0.017333333333333333, 0.004
2261, 0.010666666666666666, 0.017333333333333333, 0.005333333333333333
2262, 0.010666666666666666, 0.017333333333333333, 0.006666666666666666
2263, 0.010666666666666666, 0.017333333333333333, 0.008
2264, 0.010666666666666666, 0.017333333333333333, 0.009333333333333332
2265, 0.010666666666666666, 0.017333333333333333, 0.010666666666666666
2266, 0.010666666666666666, 0.017333333333333333, 0.012
2267, 0.010666666666666666, 0.017333333333333333, 0.013333333333333332
2268, 0.010666666666666666, 0.017333333333333333, 0.014666666666666666
2269, 0.010666666666666666, 0.017333333333333333, 0.016
2270, 0.010666666666666666, 0.017333333333333333, 0.017333333333333333
2271, 0.010666666666666666, 0.017333333333333333, 0.018666666666666665
2272, 0.010666666666666666, 0.017333333333333333, 0.02
2273, 0.010666666666666666, 0.018666666666666665, 0.0013333333333333333
2274, 0.010666666666666666, 0.018666666666666665, 0.0
2275, 0.010666666666666666, 0.018666666666666665, 0.0026666666666666666
2276, 0.010666666666666666, 0.018666666666666665, 0.004
2277, 0.010666666666666666, 0.018666666666666665, 0.005333333333333333
2278, 0.010666666666666666, 0.018666666666666665, 0.006666666666666666
2279, 0.010666666666666666, 0.018666666666666665, 0.008
2280, 0.010666666666666666, 0.018666666666666665, 0.009333333333333332
2281, 0.010666666666666666, 0.018666666666666665, 0.010666666666666666
2282, 0.010666666666666666, 0.018666666666666665, 0.012
2283, 0.010666666666666666, 0.018666666666666665, 0.013333333333333332
2284, 0.010666666666666666, 0.018666666666666665, 0.014666666666666666
2285, 0.010666666666666666, 0.018666666666666665, 0.016
2286, 0.010666666666666666, 0.018666666666666665, 0.017333333333333333
2287, 0.010666666666666666, 0.018666666666666665, 0.018666666666666665
2288, 0.010666666666666666, 0.018666666666666665, 0.02
2289, 0.010666666666666666, 0.02, 0.0013333333333333333
2290, 0.010666666666666666, 0.02, 0.0
2291, 0.010666666666666666, 0.02, 0.0026666666666666666
2292, 0.010666666666666666, 0.02, 0.004
2293, 0.010666666666666666, 0.02, 0.005333333333333333
2294, 0.010666666666666666, 0.02, 0.006666666666666666
2295, 0.010666666666666666, 0.02, 0.008
2296, 0.010666666666666666, 0.02, 0.009333333333333332
2297, 0.010666666666666666, 0.02, 0.010666666666666666
2298, 0.010666666666666666, 0.02, 0.012
2299, 0.010666666666666666, 0.02, 0.013333333333333332
2300, 0.010666666666666666, 0.02, 0.014666666666666666
2301, 0.010666666666666666, 0.02, 0.016
2302, 0.010666666666666666, 0.02, 0.017333333333333333
2303, 0.010666666666666666, 0.02, 0.018666666666666665
2304, 0.010666666666666666, 0.02, 0.02
2305, 0.012, 0.0, 0.0013333333333333333
2306, 0.012, 0.0, 0.0
2307, 0.012, 0.0013333333333333333, 0.0013333333333333333
2308, 0.012, 0.0013333333333333333, 0.0
2309, 0.012, 0.0, 0.0026666666666666666
2310, 0.012, 0.0013333333333333333, 0.0026666666666666666
2311, 0.012, 0.0, 0.004
2312, 0.012, 0.0013333333333333333, 0.004
2313, 0.012, 0.0, 0.005333333333333333
2314, 0.012, 0.0013333333333333333, 0.005333333333333333
2315, 0.012, 0.0, 0.006666666666666666
2316, 0.012, 0.0013333333333333333, 0.006666666666666666
2317, 0.012, 0.0, 0.008
2318, 0.012, 0.0013333333333333333, 0.008
2319, 0.012, 0.0, 0.009333333333333332
2320, 0.012, 0.0013333333333333333, 0.009333333333333332
2321, 0.012, 0.0, 0.010666666666666666
2322, 0.012, 0.0013333333333333333, 0.010666666666666666
2323, 0.012, 0.0, 0.012
2324, 0.012, 0.0013333333333333333, 0.012
2325, 0.012, 0.0, 0.013333333333333332
2326, 0.012, 0.0013333333333333333, 0.013333333333333332
2327, 0.012, 0.0, 0.014666666666666666
2328, 0.012, 0.0013333333333333333, 0.014666666666666666
2329, 0.012, 0.0, 0.016
2330, 0.012, 0.0013333333333333333, 0.016
2331, 0.012, 0.0, 0.017333333333333333
2332, 0.012, 0.0013333333333333333, 0.017333333333333333
2333, 0.012, 0.0, 0.018666666666666665
2334, 0.012, 0.0013333333333333333, 0.018666666666666665
2335, 0.012, 0.0, 0.02
2336, 0.012, 0.0013333333333333333, 0.02
2337, 0.012, 0.0026666666666666666, 0.0013333333333333333
2338, 0.012, 0.0026666666666666666, 0.0
2339, 0.012, 0.0026666666666666666, 0.0026666666666666666
2340, 0.012, 0.0026666666666666666, 0.004
2341, 0.012, 0.0026666666666666666, 0.005333333333333333
2342, 0.012, 0.0026666666666666666, 0.006666666666666666
2343, 0.012, 0.0026666666666666666, 0.008
2344, 0.012, 0.0026666666666666666, 0.009333333333333332
2345, 0.012, 0.0026666666666666666, 0.010666666666666666
2346, 0.012, 0.0026666666666666666, 0.012
2347, 0.012, 0.0026666666666666666, 0.013333333333333332
2348, 0.012, 0.0026666666666666666, 0.014666666666666666
2349, 0.012, 0.0026666666666666666, 0.016
2350, 0.012, 0.0026666666666666666, 0.017333333333333333
2351, 0.012, 0.0026666666666666666, 0.018666666666666665
2352, 0.012, 0.0026666666666666666, 0.02
2353, 0.012, 0.004, 0.0013333333333333333
2354, 0.012, 0.004, 0.0
2355, 0.012, 0.004, 0.0026666666666666666
2356, 0.012, 0.004, 0.004
2357, 0.012, 0.004, 0.005333333333333333
2358, 0.012, 0.004, 0.006666666666666666
2359, 0.012, 0.004, 0.008
2360, 0.012, 0.004, 0.009333333333333332
2361, 0.012, 0.004, 0.010666666666666666
2362, 0.012, 0.004, 0.012
2363, 0.012, 0.004, 0.013333333333333332
2364, 0.012, 0.004, 0.014666666666666666
2365, 0.012, 0.004, 0.016
2366, 0.012, 0.004, 0.017333333333333333
2367, 0.012, 0.004, 0.018666666666666665
2368, 0.012, 0.004, 0.02
2369, 0.012, 0.005333333333333333, 0.0013333333333333333
2370, 0.012, 0.005333333333333333, 0.0
2371, 0.012, 0.005333333333333333, 0.0026666666666666666
2372, 0.012, 0.005333333333333333, 0.004
2373, 0.012, 0.005333333333333333, 0.005333333333333333
2374, 0.012, 0.005333333333333333, 0.006666666666666666
2375, 0.012, 0.005333333333333333, 0.008
2376, 0.012, 0.005333333333333333, 0.009333333333333332
2377, 0.012, 0.005333333333333333, 0.010666666666666666
2378, 0.012, 0.005333333333333333, 0.012
2379, 0.012, 0.005333333333333333, 0.013333333333333332
2380, 0.012, 0.005333333333333333, 0.014666666666666666
2381, 0.012, 0.005333333333333333, 0.016
2382, 0.012, 0.005333333333333333, 0.017333333333333333
2383, 0.012, 0.005333333333333333, 0.018666666666666665
2384, 0.012, 0.005333333333333333, 0.02
2385, 0.012, 0.006666666666666666, 0.0013333333333333333
2386, 0.012, 0.006666666666666666, 0.0
2387, 0.012, 0.006666666666666666, 0.0026666666666666666
2388, 0.012, 0.006666666666666666, 0.004
2389, 0.012, 0.006666666666666666, 0.005333333333333333
2390, 0.012, 0.006666666666666666, 0.006666666666666666
2391, 0.012, 0.006666666666666666, 0.008
2392, 0.012, 0.006666666666666666, 0.009333333333333332
2393, 0.012, 0.006666666666666666, 0.010666666666666666
2394, 0.012, 0.006666666666666666, 0.012
2395, 0.012, 0.006666666666666666, 0.013333333333333332
2396, 0.012, 0.006666666666666666, 0.014666666666666666
2397, 0.012, 0.006666666666666666, 0.016
2398, 0.012, 0.006666666666666666, 0.017333333333333333
2399, 0.012, 0.006666666666666666, 0.018666666666666665
2400, 0.012, 0.006666666666666666, 0.02
2401, 0.012, 0.008, 0.0013333333333333333
2402, 0.012, 0.008, 0.0
2403, 0.012, 0.008, 0.0026666666666666666
2404, 0.012, 0.008, 0.004
2405, 0.012, 0.008, 0.005333333333333333
2406, 0.012, 0.008, 0.006666666666666666
2407, 0.012, 0.008, 0.008
2408, 0.012, 0.008, 0.009333333333333332
2409, 0.012, 0.008, 0.010666666666666666
2410, 0.012, 0.008, 0.012
2411, 0.012, 0.008, 0.013333333333333332
2412, 0.012, 0.008, 0.014666666666666666
2413, 0.012, 0.008, 0.016
2414, 0.012, 0.008, 0.017333333333333333
2415, 0.012, 0.008, 0.018666666666666665
2416, 0.012, 0.008, 0.02
2417, 0.012, 0.009333333333333332, 0.0013333333333333333
2418, 0.012, 0.009333333333333332, 0.0
2419, 0.012, 0.009333333333333332, 0.0026666666666666666
2420, 0.012, 0.009333333333333332, 0.004
2421, 0.012, 0.009333333333333332, 0.005333333333333333
2422, 0.012, 0.009333333333333332, 0.006666666666666666
2423, 0.012, 0.009333333333333332, 0.008
2424, 0.012, 0.009333333333333332, 0.009333333333333332
2425, 0.012, 0.009333333333333332, 0.010666666666666666
2426, 0.012, 0.009333333333333332, 0.012
2427, 0.012, 0.009333333333333332, 0.013333333333333332
2428, 0.012, 0.009333333333333332, 0.014666666666666666
2429, 0.012, 0.009333333333333332, 0.016
2430, 0.012, 0.009333333333333332, 0.017333333333333333
2431, 0.012, 0.009333333333333332, 0.018666666666666665
2432, 0.012, 0.009333333333333332, 0.02
2433, 0.012, 0.010666666666666666, 0.0013333333333333333
2434, 0.012, 0.010666666666666666, 0.0
2435, 0.012, 0.010666666666666666, 0.0026666666666666666
2436, 0.012, 0.010666666666666666, 0.004
2437, 0.012, 0.010666666666666666, 0.005333333333333333
2438, 0.012, 0.010666666666666666, 0.006666666666666666
2439, 0.012, 0.010666666666666666, 0.008
2440, 0.012, 0.010666666666666666, 0.009333333333333332
2441, 0.012, 0.010666666666666666, 0.010666666666666666
2442, 0.012, 0.010666666666666666, 0.012
2443, 0.012, 0.010666666666666666, 0.013333333333333332
2444, 0.012, 0.010666666666666666, 0.014666666666666666
2445, 0.012, 0.010666666666666666, 0.016
2446, 0.012, 0.010666666666666666, 0.017333333333333333
2447, 0.012, 0.010666666666666666, 0.018666666666666665
2448, 0.012, 0.010666666666666666, 0.02
2449, 0.012, 0.012, 0.0013333333333333333
2450, 0.012, 0.012, 0.0
2451, 0.012, 0.012, 0.0026666666666666666
2452, 0.012, 0.012, 0.004
2453, 0.012, 0.012, 0.005333333333333333
2454, 0.012, 0.012, 0.006666666666666666
2455, 0.012, 0.012, 0.008
2456, 0.012, 0.012, 0.009333333333333332
2457, 0.012, 0.012, 0.010666666666666666
2458, 0.012, 0.012, 0.012
2459, 0.012, 0.012, 0.013333333333333332
2460, 0.012, 0.012, 0.014666666666666666
2461, 0.012, 0.012, 0.016
2462, 0.012, 0.012, 0.017333333333333333
2463, 0.012, 0.012, 0.018666666666666665
2464, 0.012, 0.012, 0.02
2465, 0.012, 0.013333333333333332, 0.0013333333333333333
2466, 0.012, 0.013333333333333332, 0.0
2467, 0.012, 0.013333333333333332, 0.0026666666666666666
2468, 0.012, 0.013333333333333332, 0.004
2469, 0.012, 0.013333333333333332, 0.005333333333333333
2470, 0.012, 0.013333333333333332, 0.006666666666666666
2471, 0.012, 0.013333333333333332, 0.008
2472, 0.012, 0.013333333333333332, 0.009333333333333332
2473, 0.012, 0.013333333333333332, 0.010666666666666666
2474, 0.012, 0.013333333333333332, 0.012
2475, 0.012, 0.013333333333333332, 0.013333333333333332
2476, 0.012, 0.013333333333333332, 0.014666666666666666
2477, 0.012, 0.013333333333333332, 0.016
2478, 0.012, 0.013333333333333332, 0.017333333333333333
2479, 0.012, 0.013333333333333332, 0.018666666666666665
2480, 0.012, 0.013333333333333332, 0.02
2481, 0.012, 0.014666666666666666, 0.0013333333333333333
2482, 0.012, 0.014666666666666666, 0.0
2483, 0.012, 0.014666666666666666, 0.0026666666666666666
2484, 0.012, 0.014666666666666666, 0.004
2485, 0.012, 0.014666666666666666, 0.005333333333333333
2486, 0.012, 0.014666666666666666, 0.006666666666666666
2487, 0.012, 0.014666666666666666, 0.008
2488, 0.012, 0.014666666666666666, 0.009333333333333332
2489, 0.012, 0.014666666666666666, 0.010666666666666666
2490, 0.012, 0.014666666666666666, 0.012
2491, 0.012, 0.014666666666666666, 0.013333333333333332
2492, 0.012, 0.014666666666666666, 0.014666666666666666
2493, 0.012, 0.014666666666666666, 0.016
2494, 0.012, 0.014666666666666666, 0.017333333333333333
2495, 0.012, 0.014666666666666666, 0.018666666666666665
2496, 0.012, 0.014666666666666666, 0.02
2497, 0.012, 0.016, 0.0013333333333333333
2498, 0.012, 0.016, 0.0
2499, 0.012, 0.016, 0.0026666666666666666
2500, 0.012, 0.016, 0.004
2501, 0.012, 0.016, 0.005333333333333333
2502, 0.012, 0.016, 0.006666666666666666
2503, 0.012, 0.016, 0.008
2504, 0.012, 0.016, 0.009333333333333332
2505, 0.012, 0.016, 0.010666666666666666
2506, 0.012, 0.016, 0.012
2507, 0.012, 0.016, 0.013333333333333332
2508, 0.012, 0.016, 0.014666666666666666
2509, 0.012, 0.016, 0.016
2510, 0.012, 0.016, 0.017333333333333333
2511, 0.012, 0.016, 0.018666666666666665
2512, 0.012, 0.016, 0.02
2513, 0.012, 0.017333333333333333, 0.0013333333333333333
2514, 0.012, 0.017333333333333333, 0.0
2515, 0.012, 0.017333333333333333, 0.0026666666666666666
2516, 0.012, 0.017333333333333333, 0.004
2517, 0.012, 0.017333333333333333, 0.005333333333333333
2518, 0.012, 0.017333333333333333, 0.006666666666666666
2519, 0.012, 0.017333333333333333, 0.008
2520, 0.012, 0.017333333333333333, 0.009333333333333332
2521, 0.012, 0.017333333333333333, 0.010666666666666666
2522, 0.012, 0.017333333333333333, 0.012
2523, 0.012, 0.017333333333333333, 0.013333333333333332
2524, 0.012, 0.017333333333333333, 0.014666666666666666
2525, 0.012, 0.017333333333333333, 0.016
2526, 0.012, 0.017333333333333333, 0.017333333333333333
2527, 0.012, 0.017333333333333333, 0.018666666666666665
2528, 0.012, 0.017333333333333333, 0.02
2529, 0.012, 0.018666666666666665, 0.0013333333333333333
2530, 0.012, 0.018666666666666665, 0.0
2531, 0.012, 0.018666666666666665, 0.0026666666666666666
2532, 0.012, 0.018666666666666665, 0.004
2533, 0.012, 0.018666666666666665, 0.005333333333333333
2534, 0.012, 0.018666666666666665, 0.006666666666666666
2535, 0.012, 0.018666666666666665, 0.008
2536, 0.012, 0.018666666666666665, 0.009333333333333332
2537, 0.012, 0.018666666666666665, 0.010666666666666666
2538, 0.012, 0.018666666666666665, 0.012
2539, 0.012, 0.018666666666666665, 0.013333333333333332
2540, 0.012, 0.018666666666666665, 0.014666666666666666
2541, 0.012, 0.018666666666666665, 0.016
2542, 0.012, 0.018666666666666665, 0.017333333333333333
2543, 0.012, 0.018666666666666665, 0.018666666666666665
2544, 0.012, 0.018666666666666665, 0.02
2545, 0.012, 0.02, 0.0013333333333333333
2546, 0.012, 0.02, 0.0
2547, 0.012, 0.02, 0.0026666666666666666
2548, 0.012, 0.02, 0.004
2549, 0.012, 0.02, 0.005333333333333333
2550, 0.012, 0.02, 0.006666666666666666
2551, 0.012, 0.02, 0.008
2552, 0.012, 0.02, 0.009333333333333332
2553, 0.012, 0.02, 0.010666666666666666
2554, 0.012, 0.02, 0.012
2555, 0.012, 0.02, 0.013333333333333332
2556, 0.012, 0.02, 0.014666666666666666
2557, 0.012, 0.02, 0.016
2558, 0.012, 0.02, 0.017333333333333333
2559, 0.012, 0.02, 0.018666666666666665
2560, 0.012, 0.02, 0.02
2561, 0.013333333333333332, 0.0, 0.0013333333333333333
2562, 0.013333333333333332, 0.0, 0.0
2563, 0.013333333333333332, 0.0013333333333333333, 0.0013333333333333333
2564, 0.013333333333333332, 0.0013333333333333333, 0.0
2565, 0.013333333333333332, 0.0, 0.0026666666666666666
2566, 0.013333333333333332, 0.0013333333333333333, 0.0026666666666666666
2567, 0.013333333333333332, 0.0, 0.004
2568, 0.013333333333333332, 0.0013333333333333333, 0.004
2569, 0.013333333333333332, 0.0, 0.005333333333333333
2570, 0.013333333333333332, 0.0013333333333333333, 0.005333333333333333
2571, 0.013333333333333332, 0.0, 0.006666666666666666
2572, 0.013333333333333332, 0.0013333333333333333, 0.006666666666666666
2573, 0.013333333333333332, 0.0, 0.008
2574, 0.013333333333333332, 0.0013333333333333333, 0.008
2575, 0.013333333333333332, 0.0, 0.009333333333333332
2576, 0.013333333333333332, 0.0013333333333333333, 0.009333333333333332
2577, 0.013333333333333332, 0.0, 0.010666666666666666
2578, 0.013333333333333332, 0.0013333333333333333, 0.010666666666666666
2579, 0.013333333333333332, 0.0, 0.012
2580, 0.013333333333333332, 0.0013333333333333333, 0.012
2581, 0.013333333333333332, 0.0, 0.013333333333333332
2582, 0.013333333333333332, 0.0013333333333333333, 0.013333333333333332
2583, 0.013333333333333332, 0.0, 0.014666666666666666
2584, 0.013333333333333332, 0.0013333333333333333, 0.014666666666666666
2585, 0.013333333333333332, 0.0, 0.016
2586, 0.013333333333333332, 0.0013333333333333333, 0.016
2587, 0.013333333333333332, 0.0, 0.017333333333333333
2588, 0.013333333333333332, 0.0013333333333333333, 0.017333333333333333
2589, 0.013333333333333332, 0.0, 0.018666666666666665
2590, 0.013333333333333332, 0.0013333333333333333, 0.018666666666666665
2591, 0.013333333333333332, 0.0, 0.02
2592, 0.013333333333333332, 0.0013333333333333333, 0.02
2593, 0.013333333333333332, 0.0026666666666666666, 0.0013333333333333333
2594, 0.013333333333333332, 0.0026666666666666666, 0.0
2595, 0.013333333333333332, 0.0026666666666666666, 0.0026666666666666666
2596, 0.013333333333333332, 0.0026666666666666666, 0.004
2597, 0.013333333333333332, 0.0026666666666666666, 0.005333333333333333
2598, 0.013333333333333332, 0.0026666666666666666, 0.006666666666666666
2599, 0.013333333333333332, 0.0026666666666666666, 0.008
2600, 0.013333333333333332, 0.0026666666666666666, 0.009333333333333332
2601, 0.013333333333333332, 0.0026666666666666666, 0.010666666666666666
2602, 0.013333333333333332, 0.0026666666666666666, 0.012
2603, 0.013333333333333332, 0.0026666666666666666, 0.013333333333333332
2604, 0.013333333333333332, 0.0026666666666666666, 0.014666666666666666
2605, 0.013333333333333332, 0.0026666666666666666, 0.016
2606, 0.013333333333333332, 0.0026666666666666666, 0.017333333333333333
2607, 0.013333333333333332, 0.0026666666666666666, 0.018666666666666665
2608, 0.013333333333333332, 0.0026666666666666666, 0.02
2609, 0.013333333333333332, 0.004, 0.0013333333333333333
2610, 0.013333333333333332, 0.004, 0.0
2611, 0.013333333333333332, 0.004, 0.0026666666666666666
2612, 0.013333333333333332, 0.004, 0.004
2613, 0.013333333333333332, 0.004, 0.005333333333333333
2614, 0.013333333333333332, 0.004, 0.006666666666666666
2615, 0.013333333333333332, 0.004, 0.008
2616, 0.013333333333333332, 0.004, 0.009333333333333332
2617, 0.013333333333333332, 0.004, 0.010666666666666666
2618, 0.013333333333333332, 0.004, 0.012
2619, 0.013333333333333332, 0.004, 0.013333333333333332
2620, 0.013333333333333332, 0.004, 0.014666666666666666
2621, 0.013333333333333332, 0.004, 0.016
2622, 0.013333333333333332, 0.004, 0.017333333333333333
2623, 0.013333333333333332, 0.004, 0.018666666666666665
2624, 0.013333333333333332, 0.004, 0.02
2625, 0.013333333333333332, 0.005333333333333333, 0.0013333333333333333
2626, 0.013333333333333332, 0.005333333333333333, 0.0
2627, 0.013333333333333332, 0.005333333333333333, 0.0026666666666666666
2628, 0.013333333333333332, 0.005333333333333333, 0.004
2629, 0.013333333333333332, 0.005333333333333333, 0.005333333333333333
2630, 0.013333333333333332, 0.005333333333333333, 0.006666666666666666
2631, 0.013333333333333332, 0.005333333333333333, 0.008
2632, 0.013333333333333332, 0.005333333333333333, 0.009333333333333332
2633, 0.013333333333333332, 0.005333333333333333, 0.010666666666666666
2634, 0.013333333333333332, 0.005333333333333333, 0.012
2635, 0.013333333333333332, 0.005333333333333333, 0.013333333333333332
2636, 0.013333333333333332, 0.005333333333333333, 0.014666666666666666
2637, 0.013333333333333332, 0.005333333333333333, 0.016
2638, 0.013333333333333332, 0.005333333333333333, 0.017333333333333333
2639, 0.013333333333333332, 0.005333333333333333, 0.018666666666666665
2640, 0.013333333333333332, 0.005333333333333333, 0.02
2641, 0.013333333333333332, 0.006666666666666666, 0.0013333333333333333
2642, 0.013333333333333332, 0.006666666666666666, 0.0
2643, 0.013333333333333332, 0.006666666666666666, 0.0026666666666666666
2644, 0.013333333333333332, 0.006666666666666666, 0.004
2645, 0.013333333333333332, 0.006666666666666666, 0.005333333333333333
2646, 0.013333333333333332, 0.006666666666666666, 0.006666666666666666
2647, 0.013333333333333332, 0.006666666666666666, 0.008
2648, 0.013333333333333332, 0.006666666666666666, 0.009333333333333332
2649, 0.013333333333333332, 0.006666666666666666, 0.010666666666666666
2650, 0.013333333333333332, 0.006666666666666666, 0.012
2651, 0.013333333333333332, 0.006666666666666666, 0.013333333333333332
2652, 0.013333333333333332, 0.006666666666666666, 0.014666666666666666
2653, 0.013333333333333332, 0.006666666666666666, 0.016
2654, 0.013333333333333332, 0.006666666666666666, 0.017333333333333333
2655, 0.013333333333333332, 0.006666666666666666, 0.018666666666666665
2656, 0.013333333333333332, 0.006666666666666666, 0.02
2657, 0.013333333333333332, 0.008, 0.0013333333333333333
2658, 0.013333333333333332, 0.008, 0.0
2659, 0.013333333333333332, 0.008, 0.0026666666666666666
2660, 0.013333333333333332, 0.008, 0.004
2661, 0.013333333333333332, 0.008, 0.005333333333333333
2662, 0.013333333333333332, 0.008, 0.006666666666666666
2663, 0.013333333333333332, 0.008, 0.008
2664, 0.013333333333333332, 0.008, 0.009333333333333332
2665, 0.013333333333333332, 0.008, 0.010666666666666666
2666, 0.013333333333333332, 0.008, 0.012
2667, 0.013333333333333332, 0.008, 0.013333333333333332
2668, 0.013333333333333332, 0.008, 0.014666666666666666
2669, 0.013333333333333332, 0.008, 0.016
2670, 0.013333333333333332, 0.008, 0.017333333333333333
2671, 0.013333333333333332, 0.008, 0.018666666666666665
2672, 0.013333333333333332, 0.008, 0.02
2673, 0.013333333333333332, 0.009333333333333332, 0.0013333333333333333
2674, 0.013333333333333332, 0.009333333333333332, 0.0
2675, 0.013333333333333332, 0.009333333333333332, 0.0026666666666666666
2676, 0.013333333333333332, 0.009333333333333332, 0.004
2677, 0.013333333333333332, 0.009333333333333332, 0.005333333333333333
2678, 0.013333333333333332, 0.009333333333333332, 0.006666666666666666
2679, 0.013333333333333332, 0.009333333333333332, 0.008
2680, 0.013333333333333332, 0.009333333333333332, 0.009333333333333332
2681, 0.013333333333333332, 0.009333333333333332, 0.010666666666666666
2682, 0.013333333333333332, 0.009333333333333332, 0.012
2683, 0.013333333333333332, 0.009333333333333332, 0.013333333333333332
2684, 0.013333333333333332, 0.009333333333333332, 0.014666666666666666
2685, 0.013333333333333332, 0.009333333333333332, 0.016
2686, 0.013333333333333332, 0.009333333333333332, 0.017333333333333333
2687, 0.013333333333333332, 0.009333333333333332, 0.018666666666666665
2688, 0.013333333333333332, 0.009333333333333332, 0.02
2689, 0.013333333333333332, 0.010666666666666666, 0.0013333333333333333
2690, 0.013333333333333332, 0.010666666666666666, 0.0
2691, 0.013333333333333332, 0.010666666666666666, 0.0026666666666666666
2692, 0.013333333333333332, 0.010666666666666666, 0.004
2693, 0.013333333333333332, 0.010666666666666666, 0.005333333333333333
2694, 0.013333333333333332, 0.010666666666666666, 0.006666666666666666
2695, 0.013333333333333332, 0.010666666666666666, 0.008
2696, 0.013333333333333332, 0.010666666666666666, 0.009333333333333332
2697, 0.013333333333333332, 0.010666666666666666, 0.010666666666666666
2698, 0.013333333333333332, 0.010666666666666666, 0.012
2699, 0.013333333333333332, 0.010666666666666666, 0.013333333333333332
2700, 0.013333333333333332, 0.010666666666666666, 0.014666666666666666
2701, 0.013333333333333332, 0.010666666666666666, 0.016
2702, 0.013333333333333332, 0.010666666666666666, 0.017333333333333333
2703, 0.013333333333333332, 0.010666666666666666, 0.018666666666666665
2704, 0.013333333333333332, 0.010666666666666666, 0.02
2705, 0.013333333333333332, 0.012, 0.0013333333333333333
2706, 0.013333333333333332, 0.012, 0.0
2707, 0.013333333333333332, 0.012, 0.0026666666666666666
2708, 0.013333333333333332, 0.012, 0.004
2709, 0.013333333333333332, 0.012, 0.005333333333333333
2710, 0.013333333333333332, 0.012, 0.006666666666666666
2711, 0.013333333333333332, 0.012, 0.008
2712, 0.013333333333333332, 0.012, 0.009333333333333332
2713, 0.013333333333333332, 0.012, 0.010666666666666666
2714, 0.013333333333333332, 0.012, 0.012
2715, 0.013333333333333332, 0.012, 0.013333333333333332
2716, 0.013333333333333332, 0.012, 0.014666666666666666
2717, 0.013333333333333332, 0.012, 0.016
2718, 0.013333333333333332, 0.012, 0.017333333333333333
2719, 0.013333333333333332, 0.012, 0.018666666666666665
2720, 0.013333333333333332, 0.012, 0.02
2721, 0.013333333333333332, 0.013333333333333332, 0.0013333333333333333
2722, 0.013333333333333332, 0.013333333333333332, 0.0
2723, 0.013333333333333332, 0.013333333333333332, 0.0026666666666666666
2724, 0.013333333333333332, 0.013333333333333332, 0.004
2725, 0.013333333333333332, 0.013333333333333332, 0.005333333333333333
2726, 0.013333333333333332, 0.013333333333333332, 0.006666666666666666
2727, 0.013333333333333332, 0.013333333333333332, 0.008
2728, 0.013333333333333332, 0.013333333333333332, 0.009333333333333332
2729, 0.013333333333333332, 0.013333333333333332, 0.010666666666666666
2730, 0.013333333333333332, 0.013333333333333332, 0.012
2731, 0.013333333333333332, 0.013333333333333332, 0.013333333333333332
2732, 0.013333333333333332, 0.013333333333333332, 0.014666666666666666
2733, 0.013333333333333332, 0.013333333333333332, 0.016
2734, 0.013333333333333332, 0.013333333333333332, 0.017333333333333333
2735, 0.013333333333333332, 0.013333333333333332, 0.018666666666666665
2736, 0.013333333333333332, 0.013333333333333332, 0.02
2737, 0.013333333333333332, 0.014666666666666666, 0.0013333333333333333
2738, 0.013333333333333332, 0.014666666666666666, 0.0
2739, 0.013333333333333332, 0.014666666666666666, 0.0026666666666666666
2740, 0.013333333333333332, 0.014666666666666666, 0.004
2741, 0.013333333333333332, 0.014666666666666666, 0.005333333333333333
2742, 0.013333333333333332, 0.014666666666666666, 0.006666666666666666
2743, 0.013333333333333332, 0.014666666666666666, 0.008
2744, 0.013333333333333332, 0.014666666666666666, 0.009333333333333332
2745, 0.013333333333333332, 0.014666666666666666, 0.010666666666666666
2746, 0.013333333333333332, 0.014666666666666666, 0.012
2747, 0.013333333333333332, 0.014666666666666666, 0.013333333333333332
2748, 0.013333333333333332, 0.014666666666666666, 0.014666666666666666
2749, 0.013333333333333332, 0.014666666666666666, 0.016
2750, 0.013333333333333332, 0.014666666666666666, 0.017333333333333333
2751, 0.013333333333333332, 0.014666666666666666, 0.018666666666666665
2752, 0.013333333333333332, 0.014666666666666666, 0.02
2753, 0.013333333333333332, 0.016, 0.0013333333333333333
2754, 0.013333333333333332, 0.016, 0.0
2755, 0.013333333333333332, 0.016, 0.0026666666666666666
2756, 0.013333333333333332, 0.016, 0.004
2757, 0.013333333333333332, 0.016, 0.005333333333333333
2758, 0.013333333333333332, 0.016, 0.006666666666666666
2759, 0.013333333333333332, 0.016, 0.008
2760, 0.013333333333333332, 0.016, 0.009333333333333332
2761, 0.013333333333333332, 0.016, 0.010666666666666666
2762, 0.013333333333333332, 0.016, 0.012
2763, 0.013333333333333332, 0.016, 0.013333333333333332
2764, 0.013333333333333332, 0.016, 0.014666666666666666
2765, 0.013333333333333332, 0.016, 0.016
2766, 0.013333333333333332, 0.016, 0.017333333333333333
2767, 0.013333333333333332, 0.016, 0.018666666666666665
2768, 0.013333333333333332, 0.016, 0.02
2769, 0.013333333333333332, 0.017333333333333333, 0.0013333333333333333
2770, 0.013333333333333332, 0.017333333333333333, 0.0
2771, 0.013333333333333332, 0.017333333333333333, 0.0026666666666666666
2772, 0.013333333333333332, 0.017333333333333333, 0.004
2773, 0.013333333333333332, 0.017333333333333333, 0.005333333333333333
2774, 0.013333333333333332, 0.017333333333333333, 0.006666666666666666
2775, 0.013333333333333332, 0.017333333333333333, 0.008
2776, 0.013333333333333332, 0.017333333333333333, 0.009333333333333332
2777, 0.013333333333333332, 0.017333333333333333, 0.010666666666666666
2778, 0.013333333333333332, 0.017333333333333333, 0.012
2779, 0.013333333333333332, 0.017333333333333333, 0.013333333333333332
2780, 0.013333333333333332, 0.017333333333333333, 0.014666666666666666
2781, 0.013333333333333332, 0.017333333333333333, 0.016
2782, 0.013333333333333332, 0.017333333333333333, 0.017333333333333333
2783, 0.013333333333333332, 0.017333333333333333, 0.018666666666666665
2784, 0.013333333333333332, 0.017333333333333333, 0.02
2785, 0.013333333333333332, 0.018666666666666665, 0.0013333333333333333
2786, 0.013333333333333332, 0.018666666666666665, 0.0
2787, 0.013333333333333332, 0.018666666666666665, 0.0026666666666666666
2788, 0.013333333333333332, 0.018666666666666665, 0.004
2789, 0.013333333333333332, 0.018666666666666665, 0.005333333333333333
2790, 0.013333333333333332, 0.018666666666666665, 0.006666666666666666
2791, 0.013333333333333332, 0.018666666666666665, 0.008
2792, 0.013333333333333332, 0.018666666666666665, 0.009333333333333332
2793, 0.013333333333333332, 0.018666666666666665, 0.010666666666666666
2794, 0.013333333333333332, 0.018666666666666665, 0.012
2795, 0.013333333333333332, 0.018666666666666665, 0.013333333333333332
2796, 0.013333333333333332, 0.018666666666666665, 0.014666666666666666
2797, 0.013333333333333332, 0.018666666666666665, 0.016
2798, 0.013333333333333332, 0.018666666666666665, 0.017333333333333333
2799, 0.013333333333333332, 0.018666666666666665, 0.018666666666666665
2800, 0.013333333333333332, 0.018666666666666665, 0.02
2801, 0.013333333333333332, 0.02, 0.0013333333333333333
2802, 0.013333333333333332, 0.02, 0.0
2803, 0.013333333333333332, 0.02, 0.0026666666666666666
2804, 0.013333333333333332, 0.02, 0.004
2805, 0.013333333333333332, 0.02, 0.005333333333333333
2806, 0.013333333333333332, 0.02, 0.006666666666666666
2807, 0.013333333333333332, 0.02, 0.008
2808, 0.013333333333333332, 0.02, 0.009333333333333332
2809, 0.013333333333333332, 0.02, 0.010666666666666666
2810, 0.013333333333333332, 0.02, 0.012
2811, 0.013333333333333332, 0.02, 0.013333333333333332
2812, 0.013333333333333332, 0.02, 0.014666666666666666
2813, 0.013333333333333332, 0.02, 0.016
2814, 0.013333333333333332, 0.02, 0.017333333333333333
2815, 0.013333333333333332, 0.02, 0.018666666666666665
2816, 0.013333333333333332, 0.02, 0.02
2817, 0.014666666666666666, 0.0, 0.0013333333333333333
2818, 0.014666666666666666, 0.0, 0.0
2819, 0.014666666666666666, 0.0013333333333333333, 0.0013333333333333333
2820, 0.014666666666666666, 0.0013333333333333333, 0.0
2821, 0.014666666666666666, 0.0, 0.0026666666666666666
2822, 0.014666666666666666, 0.0013333333333333333, 0.0026666666666666666
2823, 0.014666666666666666, 0.0, 0.004
2824, 0.014666666666666666, 0.0013333333333333333, 0.004
2825, 0.014666666666666666, 0.0, 0.005333333333333333
2826, 0.014666666666666666, 0.0013333333333333333, 0.005333333333333333
2827, 0.014666666666666666, 0.0, 0.006666666666666666
2828, 0.014666666666666666, 0.0013333333333333333, 0.006666666666666666
2829, 0.014666666666666666, 0.0, 0.008
2830, 0.014666666666666666, 0.0013333333333333333, 0.008
2831, 0.014666666666666666, 0.0, 0.009333333333333332
2832, 0.014666666666666666, 0.0013333333333333333, 0.009333333333333332
2833, 0.014666666666666666, 0.0, 0.010666666666666666
2834, 0.014666666666666666, 0.0013333333333333333, 0.010666666666666666
2835, 0.014666666666666666, 0.0, 0.012
2836, 0.014666666666666666, 0.0013333333333333333, 0.012
2837, 0.014666666666666666, 0.0, 0.013333333333333332
2838, 0.014666666666666666, 0.0013333333333333333, 0.013333333333333332
2839, 0.014666666666666666, 0.0, 0.014666666666666666
2840, 0.014666666666666666, 0.0013333333333333333, 0.014666666666666666
2841, 0.014666666666666666, 0.0, 0.016
2842, 0.014666666666666666, 0.0013333333333333333, 0.016
2843, 0.014666666666666666, 0.0, 0.017333333333333333
2844, 0.014666666666666666, 0.0013333333333333333, 0.017333333333333333
2845, 0.014666666666666666, 0.0, 0.018666666666666665
2846, 0.014666666666666666, 0.0013333333333333333, 0.018666666666666665
2847, 0.014666666666666666, 0.0, 0.02
2848, 0.014666666666666666, 0.0013333333333333333, 0.02
2849, 0.014666666666666666, 0.0026666666666666666, 0.0013333333333333333
2850, 0.014666666666666666, 0.0026666666666666666, 0.0
2851, 0.014666666666666666, 0.0026666666666666666, 0.0026666666666666666
2852, 0.014666666666666666, 0.0026666666666666666, 0.004
2853, 0.014666666666666666, 0.0026666666666666666, 0.005333333333333333
2854, 0.014666666666666666, 0.0026666666666666666, 0.006666666666666666
2855, 0.014666666666666666, 0.0026666666666666666, 0.008
2856, 0.014666666666666666, 0.0026666666666666666, 0.009333333333333332
2857, 0.014666666666666666, 0.0026666666666666666, 0.010666666666666666
2858, 0.014666666666666666, 0.0026666666666666666, 0.012
2859, 0.014666666666666666, 0.0026666666666666666, 0.013333333333333332
2860, 0.014666666666666666, 0.0026666666666666666, 0.014666666666666666
2861, 0.014666666666666666, 0.0026666666666666666, 0.016
2862, 0.014666666666666666, 0.0026666666666666666, 0.017333333333333333
2863, 0.014666666666666666, 0.0026666666666666666, 0.018666666666666665
2864, 0.014666666666666666, 0.0026666666666666666, 0.02
2865, 0.014666666666666666, 0.004, 0.0013333333333333333
2866, 0.014666666666666666, 0.004, 0.0
2867, 0.014666666666666666, 0.004, 0.0026666666666666666
2868, 0.014666666666666666, 0.004, 0.004
2869, 0.014666666666666666, 0.004, 0.005333333333333333
2870, 0.014666666666666666, 0.004, 0.006666666666666666
2871, 0.014666666666666666, 0.004, 0.008
2872, 0.014666666666666666, 0.004, 0.009333333333333332
2873, 0.014666666666666666, 0.004, 0.010666666666666666
2874, 0.014666666666666666, 0.004, 0.012
2875, 0.014666666666666666, 0.004, 0.013333333333333332
2876, 0.014666666666666666, 0.004, 0.014666666666666666
2877, 0.014666666666666666, 0.004, 0.016
2878, 0.014666666666666666, 0.004, 0.017333333333333333
2879, 0.014666666666666666, 0.004, 0.018666666666666665
2880, 0.014666666666666666, 0.004, 0.02
2881, 0.014666666666666666, 0.005333333333333333, 0.0013333333333333333
2882, 0.014666666666666666, 0.005333333333333333, 0.0
2883, 0.014666666666666666, 0.005333333333333333, 0.0026666666666666666
2884, 0.014666666666666666, 0.005333333333333333, 0.004
2885, 0.014666666666666666, 0.005333333333333333, 0.005333333333333333
2886, 0.014666666666666666, 0.005333333333333333, 0.006666666666666666
2887, 0.014666666666666666, 0.005333333333333333, 0.008
2888, 0.014666666666666666, 0.005333333333333333, 0.009333333333333332
2889, 0.014666666666666666, 0.005333333333333333, 0.010666666666666666
2890, 0.014666666666666666, 0.005333333333333333, 0.012
2891, 0.014666666666666666, 0.005333333333333333, 0.013333333333333332
2892, 0.014666666666666666, 0.005333333333333333, 0.014666666666666666
2893, 0.014666666666666666, 0.005333333333333333, 0.016
2894, 0.014666666666666666, 0.005333333333333333, 0.017333333333333333
2895, 0.014666666666666666, 0.005333333333333333, 0.018666666666666665
2896, 0.014666666666666666, 0.005333333333333333, 0.02
2897, 0.014666666666666666, 0.006666666666666666, 0.0013333333333333333
2898, 0.014666666666666666, 0.006666666666666666, 0.0
2899, 0.014666666666666666, 0.006666666666666666, 0.0026666666666666666
2900, 0.014666666666666666, 0.006666666666666666, 0.004
2901, 0.014666666666666666, 0.006666666666666666, 0.005333333333333333
2902, 0.014666666666666666, 0.006666666666666666, 0.006666666666666666
2903, 0.014666666666666666, 0.006666666666666666, 0.008
2904, 0.014666666666666666, 0.006666666666666666, 0.009333333333333332
2905, 0.014666666666666666, 0.006666666666666666, 0.010666666666666666
2906, 0.014666666666666666, 0.006666666666666666, 0.012
2907, 0.014666666666666666, 0.006666666666666666, 0.013333333333333332
2908, 0.014666666666666666, 0.006666666666666666, 0.014666666666666666
2909, 0.014666666666666666, 0.006666666666666666, 0.016
2910, 0.014666666666666666, 0.006666666666666666, 0.017333333333333333
2911, 0.014666666666666666, 0.006666666666666666, 0.018666666666666665
2912, 0.014666666666666666, 0.006666666666666666, 0.02
2913, 0.014666666666666666, 0.008, 0.0013333333333333333
2914, 0.014666666666666666, 0.008, 0.0
2915, 0.014666666666666666, 0.008, 0.0026666666666666666
2916, 0.014666666666666666, 0.008, 0.004
2917, 0.014666666666666666, 0.008, 0.005333333333333333
2918, 0.014666666666666666, 0.008, 0.006666666666666666
2919, 0.014666666666666666, 0.008, 0.008
2920, 0.014666666666666666, 0.008, 0.009333333333333332
2921, 0.014666666666666666, 0.008, 0.010666666666666666
2922, 0.014666666666666666, 0.008, 0.012
2923, 0.014666666666666666, 0.008, 0.013333333333333332
2924, 0.014666666666666666, 0.008, 0.014666666666666666
2925, 0.014666666666666666, 0.008, 0.016
2926, 0.014666666666666666, 0.008, 0.017333333333333333
2927, 0.014666666666666666, 0.008, 0.018666666666666665
2928, 0.014666666666666666, 0.008, 0.02
2929, 0.014666666666666666, 0.009333333333333332, 0.0013333333333333333
2930, 0.014666666666666666, 0.009333333333333332, 0.0
2931, 0.014666666666666666, 0.009333333333333332, 0.0026666666666666666
2932, 0.014666666666666666, 0.009333333333333332, 0.004
2933, 0.014666666666666666, 0.009333333333333332, 0.005333333333333333
2934, 0.014666666666666666, 0.009333333333333332, 0.006666666666666666
2935, 0.014666666666666666, 0.009333333333333332, 0.008
2936, 0.014666666666666666, 0.009333333333333332, 0.009333333333333332
2937, 0.014666666666666666, 0.009333333333333332, 0.010666666666666666
2938, 0.014666666666666666, 0.009333333333333332, 0.012
2939, 0.014666666666666666, 0.009333333333333332, 0.013333333333333332
2940, 0.014666666666666666, 0.009333333333333332, 0.014666666666666666
2941, 0.014666666666666666, 0.009333333333333332, 0.016
2942, 0.014666666666666666, 0.009333333333333332, 0.017333333333333333
2943, 0.014666666666666666, 0.009333333333333332, 0.018666666666666665
2944, 0.014666666666666666, 0.009333333333333332, 0.02
2945, 0.014666666666666666, 0.010666666666666666, 0.0013333333333333333
2946, 0.014666666666666666, 0.010666666666666666, 0.0
2947, 0.014666666666666666, 0.010666666666666666, 0.0026666666666666666
2948, 0.014666666666666666, 0.010666666666666666, 0.004
2949, 0.014666666666666666, 0.010666666666666666, 0.005333333333333333
2950, 0.014666666666666666, 0.010666666666666666, 0.006666666666666666
2951, 0.014666666666666666, 0.010666666666666666, 0.008
2952, 0.014666666666666666, 0.010666666666666666, 0.009333333333333332
2953, 0.014666666666666666, 0.010666666666666666, 0.010666666666666666
2954, 0.014666666666666666, 0.010666666666666666, 0.012
2955, 0.014666666666666666, 0.010666666666666666, 0.013333333333333332
2956, 0.014666666666666666, 0.010666666666666666, 0.014666666666666666
2957, 0.014666666666666666, 0.010666666666666666, 0.016
2958, 0.014666666666666666, 0.010666666666666666, 0.017333333333333333
2959, 0.014666666666666666, 0.010666666666666666, 0.018666666666666665
2960, 0.014666666666666666, 0.010666666666666666, 0.02
2961, 0.014666666666666666, 0.012, 0.0013333333333333333
2962, 0.014666666666666666, 0.012, 0.0
2963, 0.014666666666666666, 0.012, 0.0026666666666666666
2964, 0.014666666666666666, 0.012, 0.004
2965, 0.014666666666666666, 0.012, 0.005333333333333333
2966, 0.014666666666666666, 0.012, 0.006666666666666666
2967, 0.014666666666666666, 0.012, 0.008
2968, 0.014666666666666666, 0.012, 0.009333333333333332
2969, 0.014666666666666666, 0.012, 0.010666666666666666
2970, 0.014666666666666666, 0.012, 0.012
2971, 0.014666666666666666, 0.012, 0.013333333333333332
2972, 0.014666666666666666, 0.012, 0.014666666666666666
2973, 0.014666666666666666, 0.012, 0.016
2974, 0.014666666666666666, 0.012, 0.017333333333333333
2975, 0.014666666666666666, 0.012, 0.018666666666666665
2976, 0.014666666666666666, 0.012, 0.02
2977, 0.014666666666666666, 0.013333333333333332, 0.0013333333333333333
2978, 0.014666666666666666, 0.013333333333333332, 0.0
2979, 0.014666666666666666, 0.013333333333333332, 0.0026666666666666666
2980, 0.014666666666666666, 0.013333333333333332, 0.004
2981, 0.014666666666666666, 0.013333333333333332, 0.005333333333333333
2982, 0.014666666666666666, 0.013333333333333332, 0.006666666666666666
2983, 0.014666666666666666, 0.013333333333333332, 0.008
2984, 0.014666666666666666, 0.013333333333333332, 0.009333333333333332
2985, 0.014666666666666666, 0.013333333333333332, 0.010666666666666666
2986, 0.014666666666666666, 0.013333333333333332, 0.012
2987, 0.014666666666666666, 0.013333333333333332, 0.013333333333333332
2988, 0.014666666666666666, 0.013333333333333332, 0.014666666666666666
2989, 0.014666666666666666, 0.013333333333333332, 0.016
2990, 0.014666666666666666, 0.013333333333333332, 0.017333333333333333
2991, 0.014666666666666666, 0.013333333333333332, 0.018666666666666665
2992, 0.014666666666666666, 0.013333333333333332, 0.02
2993, 0.014666666666666666, 0.014666666666666666, 0.0013333333333333333
2994, 0.014666666666666666, 0.014666666666666666, 0.0
2995, 0.014666666666666666, 0.014666666666666666, 0.0026666666666666666
2996, 0.014666666666666666, 0.014666666666666666, 0.004
2997, 0.014666666666666666, 0.014666666666666666, 0.005333333333333333
2998, 0.014666666666666666, 0.014666666666666666, 0.006666666666666666
2999, 0.014666666666666666, 0.014666666666666666, 0.008
3000, 0.014666666666666666, 0.014666666666666666, 0.009333333333333332
3001, 0.014666666666666666, 0.014666666666666666, 0.010666666666666666
3002, 0.014666666666666666, 0.014666666666666666, 0.012
3003, 0.014666666666666666, 0.014666666666666666, 0.013333333333333332
3004, 0.014666666666666666, 0.014666666666666666, 0.014666666666666666
3005, 0.014666666666666666, 0.014666666666666666, 0.016
3006, 0.014666666666666666, 0.014666666666666666, 0.017333333333333333
3007, 0.014666666666666666, 0.014666666666666666, 0.018666666666666665
3008, 0.014666666666666666, 0.014666666666666666, 0.02
3009, 0.014666666666666666, 0.016, 0.0013333333333333333
3010, 0.014666666666666666, 0.016, 0.0
3011, 0.014666666666666666, 0.016, 0.0026666666666666666
3012, 0.014666666666666666, 0.016, 0.004
3013, 0.014666666666666666, 0.016, 0.005333333333333333
3014, 0.014666666666666666, 0.016, 0.006666666666666666
3015, 0.014666666666666666, 0.016, 0.008
3016, 0.014666666666666666, 0.016, 0.009333333333333332
3017, 0.014666666666666666, 0.016, 0.010666666666666666
3018, 0.014666666666666666, 0.016, 0.012
3019, 0.014666666666666666, 0.016, 0.013333333333333332
3020, 0.014666666666666666, 0.016, 0.014666666666666666
3021, 0.014666666666666666, 0.016, 0.016
3022, 0.014666666666666666, 0.016, 0.017333333333333333
3023, 0.014666666666666666, 0.016, 0.018666666666666665
3024, 0.014666666666666666, 0.016, 0.02
3025, 0.014666666666666666, 0.017333333333333333, 0.0013333333333333333
3026, 0.014666666666666666, 0.017333333333333333, 0.0
3027, 0.014666666666666666, 0.017333333333333333, 0.0026666666666666666
3028, 0.014666666666666666, 0.017333333333333333, 0.004
3029, 0.014666666666666666, 0.017333333333333333, 0.005333333333333333
3030, 0.014666666666666666, 0.017333333333333333, 0.006666666666666666
3031, 0.014666666666666666, 0.017333333333333333, 0.008
3032, 0.014666666666666666, 0.017333333333333333, 0.009333333333333332
3033, 0.014666666666666666, 0.017333333333333333, 0.010666666666666666
3034, 0.014666666666666666, 0.017333333333333333, 0.012
3035, 0.014666666666666666, 0.017333333333333333, 0.013333333333333332
3036, 0.014666666666666666, 0.017333333333333333, 0.014666666666666666
3037, 0.014666666666666666, 0.017333333333333333, 0.016
3038, 0.014666666666666666, 0.017333333333333333, 0.017333333333333333
3039, 0.014666666666666666, 0.017333333333333333, 0.018666666666666665
3040, 0.014666666666666666, 0.017333333333333333, 0.02
3041, 0.014666666666666666, 0.018666666666666665, 0.0013333333333333333
3042, 0.014666666666666666, 0.018666666666666665, 0.0
3043, 0.014666666666666666, 0.018666666666666665, 0.0026666666666666666
3044, 0.014666666666666666, 0.018666666666666665, 0.004
3045, 0.014666666666666666, 0.018666666666666665, 0.005333333333333333
3046, 0.014666666666666666, 0.018666666666666665, 0.006666666666666666
3047, 0.014666666666666666, 0.018666666666666665, 0.008
3048, 0.014666666666666666, 0.018666666666666665, 0.009333333333333332
3049, 0.014666666666666666, 0.018666666666666665, 0.010666666666666666
3050, 0.014666666666666666, 0.018666666666666665, 0.012
3051, 0.014666666666666666, 0.018666666666666665, 0.013333333333333332
3052, 0.014666666666666666, 0.018666666666666665, 0.014666666666666666
3053, 0.014666666666666666, 0.018666666666666665, 0.016
3054, 0.014666666666666666, 0.018666666666666665, 0.017333333333333333
3055, 0.014666666666666666, 0.018666666666666665, 0.018666666666666665
3056, 0.014666666666666666, 0.018666666666666665, 0.02
3057, 0.014666666666666666, 0.02, 0.0013333333333333333
3058, 0.014666666666666666, 0.02, 0.0
3059, 0.014666666666666666, 0.02, 0.0026666666666666666
3060, 0.014666666666666666, 0.02, 0.004
3061, 0.014666666666666666, 0.02, 0.005333333333333333
3062, 0.014666666666666666, 0.02, 0.006666666666666666
3063, 0.014666666666666666, 0.02, 0.008
3064, 0.014666666666666666, 0.02, 0.009333333333333332
3065, 0.014666666666666666, 0.02, 0.010666666666666666
3066, 0.014666666666666666, 0.02, 0.012
3067, 0.014666666666666666, 0.02, 0.013333333333333332
3068, 0.014666666666666666, 0.02, 0.014666666666666666
3069, 0.014666666666666666, 0.02, 0.016
3070, 0.014666666666666666, 0.02, 0.017333333333333333
3071, 0.014666666666666666, 0.02, 0.018666666666666665
3072, 0.014666666666666666, 0.02, 0.02
3073, 0.016, 0.0, 0.0013333333333333333
3074, 0.016, 0.0, 0.0
3075, 0.016, 0.0013333333333333333, 0.0013333333333333333
3076, 0.016, 0.0013333333333333333, 0.0
3077, 0.016, 0.0, 0.0026666666666666666
3078, 0.016, 0.0013333333333333333, 0.0026666666666666666
3079, 0.016, 0.0, 0.004
3080, 0.016, 0.0013333333333333333, 0.004
3081, 0.016, 0.0, 0.005333333333333333
3082, 0.016, 0.0013333333333333333, 0.005333333333333333
3083, 0.016, 0.0, 0.006666666666666666
3084, 0.016, 0.0013333333333333333, 0.006666666666666666
3085, 0.016, 0.0, 0.008
3086, 0.016, 0.0013333333333333333, 0.008
3087, 0.016, 0.0, 0.009333333333333332
3088, 0.016, 0.0013333333333333333, 0.009333333333333332
3089, 0.016, 0.0, 0.010666666666666666
3090, 0.016, 0.0013333333333333333, 0.010666666666666666
3091, 0.016, 0.0, 0.012
3092, 0.016, 0.0013333333333333333, 0.012
3093, 0.016, 0.0, 0.013333333333333332
3094, 0.016, 0.0013333333333333333, 0.013333333333333332
3095, 0.016, 0.0, 0.014666666666666666
3096, 0.016, 0.0013333333333333333, 0.014666666666666666
3097, 0.016, 0.0, 0.016
3098, 0.016, 0.0013333333333333333, 0.016
3099, 0.016, 0.0, 0.017333333333333333
3100, 0.016, 0.0013333333333333333, 0.017333333333333333
3101, 0.016, 0.0, 0.018666666666666665
3102, 0.016, 0.0013333333333333333, 0.018666666666666665
3103, 0.016, 0.0, 0.02
3104, 0.016, 0.0013333333333333333, 0.02
3105, 0.016, 0.0026666666666666666, 0.0013333333333333333
3106, 0.016, 0.0026666666666666666, 0.0
3107, 0.016, 0.0026666666666666666, 0.0026666666666666666
3108, 0.016, 0.0026666666666666666, 0.004
3109, 0.016, 0.0026666666666666666, 0.005333333333333333
3110, 0.016, 0.0026666666666666666, 0.006666666666666666
3111, 0.016, 0.0026666666666666666, 0.008
3112, 0.016, 0.0026666666666666666, 0.009333333333333332
3113, 0.016, 0.0026666666666666666, 0.010666666666666666
3114, 0.016, 0.0026666666666666666, 0.012
3115, 0.016, 0.0026666666666666666, 0.013333333333333332
3116, 0.016, 0.0026666666666666666, 0.014666666666666666
3117, 0.016, 0.0026666666666666666, 0.016
3118, 0.016, 0.0026666666666666666, 0.017333333333333333
3119, 0.016, 0.0026666666666666666, 0.018666666666666665
3120, 0.016, 0.0026666666666666666, 0.02
3121, 0.016, 0.004, 0.0013333333333333333
3122, 0.016, 0.004, 0.0
3123, 0.016, 0.004, 0.0026666666666666666
3124, 0.016, 0.004, 0.004
3125, 0.016, 0.004, 0.005333333333333333
3126, 0.016, 0.004, 0.006666666666666666
3127, 0.016, 0.004, 0.008
3128, 0.016, 0.004, 0.009333333333333332
3129, 0.016, 0.004, 0.010666666666666666
3130, 0.016, 0.004, 0.012
3131, 0.016, 0.004, 0.013333333333333332
3132, 0.016, 0.004, 0.014666666666666666
3133, 0.016, 0.004, 0.016
3134, 0.016, 0.004, 0.017333333333333333
3135, 0.016, 0.004, 0.018666666666666665
3136, 0.016, 0.004, 0.02
3137, 0.016, 0.005333333333333333, 0.0013333333333333333
3138, 0.016, 0.005333333333333333, 0.0
3139, 0.016, 0.005333333333333333, 0.0026666666666666666
3140, 0.016, 0.005333333333333333, 0.004
3141, 0.016, 0.005333333333333333, 0.005333333333333333
3142, 0.016, 0.005333333333333333, 0.006666666666666666
3143, 0.016, 0.005333333333333333, 0.008
3144, 0.016, 0.005333333333333333, 0.009333333333333332
3145, 0.016, 0.005333333333333333, 0.010666666666666666
3146, 0.016, 0.005333333333333333, 0.012
3147, 0.016, 0.005333333333333333, 0.013333333333333332
3148, 0.016, 0.005333333333333333, 0.014666666666666666
3149, 0.016, 0.005333333333333333, 0.016
3150, 0.016, 0.005333333333333333, 0.017333333333333333
3151, 0.016, 0.005333333333333333, 0.018666666666666665
3152, 0.016, 0.005333333333333333, 0.02
3153, 0.016, 0.006666666666666666, 0.0013333333333333333
3154, 0.016, 0.006666666666666666, 0.0
3155, 0.016, 0.006666666666666666, 0.0026666666666666666
3156, 0.016, 0.006666666666666666, 0.004
3157, 0.016, 0.006666666666666666, 0.005333333333333333
3158, 0.016, 0.006666666666666666, 0.006666666666666666
3159, 0.016, 0.006666666666666666, 0.008
3160, 0.016, 0.006666666666666666, 0.009333333333333332
3161, 0.016, 0.006666666666666666, 0.010666666666666666
3162, 0.016, 0.006666666666666666, 0.012
3163, 0.016, 0.006666666666666666, 0.013333333333333332
3164, 0.016, 0.006666666666666666, 0.014666666666666666
3165, 0.016, 0.006666666666666666, 0.016
3166, 0.016, 0.006666666666666666, 0.017333333333333333
3167, 0.016, 0.006666666666666666, 0.018666666666666665
3168, 0.016, 0.006666666666666666, 0.02
3169, 0.016, 0.008, 0.0013333333333333333
3170, 0.016, 0.008, 0.0
3171, 0.016, 0.008, 0.0026666666666666666
3172, 0.016, 0.008, 0.004
3173, 0.016, 0.008, 0.005333333333333333
3174, 0.016, 0.008, 0.006666666666666666
3175, 0.016, 0.008, 0.008
3176, 0.016, 0.008, 0.009333333333333332
3177, 0.016, 0.008, 0.010666666666666666
3178, 0.016, 0.008, 0.012
3179, 0.016, 0.008, 0.013333333333333332
3180, 0.016, 0.008, 0.014666666666666666
3181, 0.016, 0.008, 0.016
3182, 0.016, 0.008, 0.017333333333333333
3183, 0.016, 0.008, 0.018666666666666665
3184, 0.016, 0.008, 0.02
3185, 0.016, 0.009333333333333332, 0.0013333333333333333
3186, 0.016, 0.009333333333333332, 0.0
3187, 0.016, 0.009333333333333332, 0.0026666666666666666
3188, 0.016, 0.009333333333333332, 0.004
3189, 0.016, 0.009333333333333332, 0.005333333333333333
3190, 0.016, 0.009333333333333332, 0.006666666666666666
3191, 0.016, 0.009333333333333332, 0.008
3192, 0.016, 0.009333333333333332, 0.009333333333333332
3193, 0.016, 0.009333333333333332, 0.010666666666666666
3194, 0.016, 0.009333333333333332, 0.012
3195, 0.016, 0.009333333333333332, 0.013333333333333332
3196, 0.016, 0.009333333333333332, 0.014666666666666666
3197, 0.016, 0.009333333333333332, 0.016
3198, 0.016, 0.009333333333333332, 0.017333333333333333
3199, 0.016, 0.009333333333333332, 0.018666666666666665
3200, 0.016, 0.009333333333333332, 0.02
3201, 0.016, 0.010666666666666666, 0.0013333333333333333
3202, 0.016, 0.010666666666666666, 0.0
3203, 0.016, 0.010666666666666666, 0.0026666666666666666
3204, 0.016, 0.010666666666666666, 0.004
3205, 0.016, 0.010666666666666666, 0.005333333333333333
3206, 0.016, 0.010666666666666666, 0.006666666666666666
3207, 0.016, 0.010666666666666666, 0.008
3208, 0.016, 0.010666666666666666, 0.009333333333333332
3209, 0.016, 0.010666666666666666, 0.010666666666666666
3210, 0.016, 0.010666666666666666, 0.012
3211, 0.016, 0.010666666666666666, 0.013333333333333332
3212, 0.016, 0.010666666666666666, 0.014666666666666666
3213, 0.016, 0.010666666666666666, 0.016
3214, 0.016, 0.010666666666666666, 0.017333333333333333
3215, 0.016, 0.010666666666666666, 0.018666666666666665
3216, 0.016, 0.010666666666666666, 0.02
3217, 0.016, 0.012, 0.0013333333333333333
3218, 0.016, 0.012, 0.0
3219, 0.016, 0.012, 0.0026666666666666666
3220, 0.016, 0.012, 0.004
3221, 0.016, 0.012, 0.005333333333333333
3222, 0.016, 0.012, 0.006666666666666666
3223, 0.016, 0.012, 0.008
3224, 0.016, 0.012, 0.009333333333333332
3225, 0.016, 0.012, 0.010666666666666666
3226, 0.016, 0.012, 0.012
3227, 0.016, 0.012, 0.013333333333333332
3228, 0.016, 0.012, 0.014666666666666666
3229, 0.016, 0.012, 0.016
3230, 0.016, 0.012, 0.017333333333333333
3231, 0.016, 0.012, 0.018666666666666665
3232, 0.016, 0.012, 0.02
3233, 0.016, 0.013333333333333332, 0.0013333333333333333
3234, 0.016, 0.013333333333333332, 0.0
3235, 0.016, 0.013333333333333332, 0.0026666666666666666
3236, 0.016, 0.013333333333333332, 0.004
3237, 0.016, 0.013333333333333332, 0.005333333333333333
3238, 0.016, 0.013333333333333332, 0.006666666666666666
3239, 0.016, 0.013333333333333332, 0.008
3240, 0.016, 0.013333333333333332, 0.009333333333333332
3241, 0.016, 0.013333333333333332, 0.010666666666666666
3242, 0.016, 0.013333333333333332, 0.012
3243, 0.016, 0.013333333333333332, 0.013333333333333332
3244, 0.016, 0.013333333333333332, 0.014666666666666666
3245, 0.016, 0.013333333333333332, 0.016
3246, 0.016, 0.013333333333333332, 0.017333333333333333
3247, 0.016, 0.013333333333333332, 0.018666666666666665
3248, 0.016, 0.013333333333333332, 0.02
3249, 0.016, 0.014666666666666666, 0.0013333333333333333
3250, 0.016, 0.014666666666666666, 0.0
3251, 0.016, 0.014666666666666666, 0.0026666666666666666
3252, 0.016, 0.014666666666666666, 0.004
3253, 0.016, 0.014666666666666666, 0.005333333333333333
3254, 0.016, 0.014666666666666666, 0.006666666666666666
3255, 0.016, 0.014666666666666666, 0.008
3256, 0.016, 0.014666666666666666, 0.009333333333333332
3257, 0.016, 0.014666666666666666, 0.010666666666666666
3258, 0.016, 0.014666666666666666, 0.012
3259, 0.016, 0.014666666666666666, 0.013333333333333332
3260, 0.016, 0.014666666666666666, 0.014666666666666666
3261, 0.016, 0.014666666666666666, 0.016
3262, 0.016, 0.014666666666666666, 0.017333333333333333
3263, 0.016, 0.014666666666666666, 0.018666666666666665
3264, 0.016, 0.014666666666666666, 0.02
3265, 0.016, 0.016, 0.0013333333333333333
3266, 0.016, 0.016, 0.0
3267, 0.016, 0.016, 0.0026666666666666666
3268, 0.016, 0.016, 0.004
3269, 0.016, 0.016, 0.005333333333333333
3270, 0.016, 0.016, 0.006666666666666666
3271, 0.016, 0.016, 0.008
3272, 0.016, 0.016, 0.009333333333333332
3273, 0.016, 0.016, 0.010666666666666666
3274, 0.016, 0.016, 0.012
3275, 0.016, 0.016, 0.013333333333333332
3276, 0.016, 0.016, 0.014666666666666666
3277, 0.016, 0.016, 0.016
3278, 0.016, 0.016, 0.017333333333333333
3279, 0.016, 0.016, 0.018666666666666665
3280, 0.016, 0.016, 0.02
3281, 0.016, 0.017333333333333333, 0.0013333333333333333
3282, 0.016, 0.017333333333333333, 0.0
3283, 0.016, 0.017333333333333333, 0.0026666666666666666
3284, 0.016, 0.017333333333333333, 0.004
3285, 0.016, 0.017333333333333333, 0.005333333333333333
3286, 0.016, 0.017333333333333333, 0.006666666666666666
3287, 0.016, 0.017333333333333333, 0.008
3288, 0.016, 0.017333333333333333, 0.009333333333333332
3289, 0.016, 0.017333333333333333, 0.010666666666666666
3290, 0.016, 0.017333333333333333, 0.012
3291, 0.016, 0.017333333333333333, 0.013333333333333332
3292, 0.016, 0.017333333333333333, 0.014666666666666666
3293, 0.016, 0.017333333333333333, 0.016
3294, 0.016, 0.017333333333333333, 0.017333333333333333
3295, 0.016, 0.017333333333333333, 0.018666666666666665
3296, 0.016, 0.017333333333333333, 0.02
3297, 0.016, 0.018666666666666665, 0.0013333333333333333
3298, 0.016, 0.018666666666666665, 0.0
3299, 0.016, 0.018666666666666665, 0.0026666666666666666
3300, 0.016, 0.018666666666666665, 0.004
3301, 0.016, 0.018666666666666665, 0.005333333333333333
3302, 0.016, 0.018666666666666665, 0.006666666666666666
3303, 0.016, 0.018666666666666665, 0.008
3304, 0.016, 0.018666666666666665, 0.009333333333333332
3305, 0.016, 0.018666666666666665, 0.010666666666666666
3306, 0.016, 0.018666666666666665, 0.012
3307, 0.016, 0.018666666666666665, 0.013333333333333332
3308, 0.016, 0.018666666666666665, 0.014666666666666666
3309, 0.016, 0.018666666666666665, 0.016
3310, 0.016, 0.018666666666666665, 0.017333333333333333
3311, 0.016, 0.018666666666666665, 0.018666666666666665
3312, 0.016, 0.018666666666666665, 0.02
3313, 0.016, 0.02, 0.0013333333333333333
3314, 0.016, 0.02, 0.0
3315, 0.016, 0.02, 0.0026666666666666666
3316, 0.016, 0.02, 0.004
3317, 0.016, 0.02, 0.005333333333333333
3318, 0.016, 0.02, 0.006666666666666666
3319, 0.016, 0.02, 0.008
3320, 0.016, 0.02, 0.009333333333333332
3321, 0.016, 0.02, 0.010666666666666666
3322, 0.016, 0.02, 0.012
3323, 0.016, 0.02, 0.013333333333333332
3324, 0.016, 0.02, 0.014666666666666666
3325, 0.016, 0.02, 0.016
3326, 0.016, 0.02, 0.017333333333333333
3327, 0.016, 0.02, 0.018666666666666665
3328, 0.016, 0.02, 0.02
3329, 0.017333333333333333, 0.0, 0.0013333333333333333
3330, 0.017333333333333333, 0.0, 0.0
3331, 0.017333333333333333, 0.0013333333333333333, 0.0013333333333333333
3332, 0.017333333333333333, 0.0013333333333333333, 0.0
3333, 0.017333333333333333, 0.0, 0.0026666666666666666
3334, 0.017333333333333333, 0.0013333333333333333, 0.0026666666666666666
3335, 0.017333333333333333, 0.0, 0.004
3336, 0.017333333333333333, 0.0013333333333333333, 0.004
3337, 0.017333333333333333, 0.0, 0.005333333333333333
3338, 0.017333333333333333, 0.0013333333333333333, 0.005333333333333333
3339, 0.017333333333333333, 0.0, 0.006666666666666666
3340, 0.017333333333333333, 0.0013333333333333333, 0.006666666666666666
3341, 0.017333333333333333, 0.0, 0.008
3342, 0.017333333333333333, 0.0013333333333333333, 0.008
3343, 0.017333333333333333, 0.0, 0.009333333333333332
3344, 0.017333333333333333, 0.0013333333333333333, 0.009333333333333332
3345, 0.017333333333333333, 0.0, 0.010666666666666666
3346, 0.017333333333333333, 0.0013333333333333333, 0.010666666666666666
3347, 0.017333333333333333, 0.0, 0.012
3348, 0.017333333333333333, 0.0013333333333333333, 0.012
3349, 0.017333333333333333, 0.0, 0.013333333333333332
3350, 0.017333333333333333, 0.0013333333333333333, 0.013333333333333332
3351, 0.017333333333333333, 0.0, 0.014666666666666666
3352, 0.017333333333333333, 0.0013333333333333333, 0.014666666666666666
3353, 0.017333333333333333, 0.0, 0.016
3354, 0.017333333333333333, 0.0013333333333333333, 0.016
3355, 0.017333333333333333, 0.0, 0.017333333333333333
3356, 0.017333333333333333, 0.0013333333333333333, 0.017333333333333333
3357, 0.017333333333333333, 0.0, 0.018666666666666665
3358, 0.017333333333333333, 0.0013333333333333333, 0.018666666666666665
3359, 0.017333333333333333, 0.0, 0.02
3360, 0.017333333333333333, 0.0013333333333333333, 0.02
3361, 0.017333333333333333, 0.0026666666666666666, 0.0013333333333333333
3362, 0.017333333333333333, 0.0026666666666666666, 0.0
3363, 0.017333333333333333, 0.0026666666666666666, 0.0026666666666666666
3364, 0.017333333333333333, 0.0026666666666666666, 0.004
3365, 0.017333333333333333, 0.0026666666666666666, 0.005333333333333333
3366, 0.017333333333333333, 0.0026666666666666666, 0.006666666666666666
3367, 0.017333333333333333, 0.0026666666666666666, 0.008
3368, 0.017333333333333333, 0.0026666666666666666, 0.009333333333333332
3369, 0.017333333333333333, 0.0026666666666666666, 0.010666666666666666
3370, 0.017333333333333333, 0.0026666666666666666, 0.012
3371, 0.017333333333333333, 0.0026666666666666666, 0.013333333333333332
3372, 0.017333333333333333, 0.0026666666666666666, 0.014666666666666666
3373, 0.017333333333333333, 0.0026666666666666666, 0.016
3374, 0.017333333333333333, 0.0026666666666666666, 0.017333333333333333
3375, 0.017333333333333333, 0.0026666666666666666, 0.018666666666666665
3376, 0.017333333333333333, 0.0026666666666666666, 0.02
3377, 0.017333333333333333, 0.004, 0.0013333333333333333
3378, 0.017333333333333333, 0.004, 0.0
3379, 0.017333333333333333, 0.004, 0.0026666666666666666
3380, 0.017333333333333333, 0.004, 0.004
3381, 0.017333333333333333, 0.004, 0.005333333333333333
3382, 0.017333333333333333, 0.004, 0.006666666666666666
3383, 0.017333333333333333, 0.004, 0.008
3384, 0.017333333333333333, 0.004, 0.009333333333333332
3385, 0.017333333333333333, 0.004, 0.010666666666666666
3386, 0.017333333333333333, 0.004, 0.012
3387, 0.017333333333333333, 0.004, 0.013333333333333332
3388, 0.017333333333333333, 0.004, 0.014666666666666666
3389, 0.017333333333333333, 0.004, 0.016
3390, 0.017333333333333333, 0.004, 0.017333333333333333
3391, 0.017333333333333333, 0.004, 0.018666666666666665
3392, 0.017333333333333333, 0.004, 0.02
3393, 0.017333333333333333, 0.005333333333333333, 0.0013333333333333333
3394, 0.017333333333333333, 0.005333333333333333, 0.0
3395, 0.017333333333333333, 0.005333333333333333, 0.0026666666666666666
3396, 0.017333333333333333, 0.005333333333333333, 0.004
3397, 0.017333333333333333, 0.005333333333333333, 0.005333333333333333
3398, 0.017333333333333333, 0.005333333333333333, 0.006666666666666666
3399, 0.017333333333333333, 0.005333333333333333, 0.008
3400, 0.017333333333333333, 0.005333333333333333, 0.009333333333333332
3401, 0.017333333333333333, 0.005333333333333333, 0.010666666666666666
3402, 0.017333333333333333, 0.005333333333333333, 0.012
3403, 0.017333333333333333, 0.005333333333333333, 0.013333333333333332
3404, 0.017333333333333333, 0.005333333333333333, 0.014666666666666666
3405, 0.017333333333333333, 0.005333333333333333, 0.016
3406, 0.017333333333333333, 0.005333333333333333, 0.017333333333333333
3407, 0.017333333333333333, 0.005333333333333333, 0.018666666666666665
3408, 0.017333333333333333, 0.005333333333333333, 0.02
3409, 0.017333333333333333, 0.006666666666666666, 0.0013333333333333333
3410, 0.017333333333333333, 0.006666666666666666, 0.0
3411, 0.017333333333333333, 0.006666666666666666, 0.0026666666666666666
3412, 0.017333333333333333, 0.006666666666666666, 0.004
3413, 0.017333333333333333, 0.006666666666666666, 0.005333333333333333
3414, 0.017333333333333333, 0.006666666666666666, 0.006666666666666666
3415, 0.017333333333333333, 0.006666666666666666, 0.008
3416, 0.017333333333333333, 0.006666666666666666, 0.009333333333333332
3417, 0.017333333333333333, 0.006666666666666666, 0.010666666666666666
3418, 0.017333333333333333, 0.006666666666666666, 0.012
3419, 0.017333333333333333, 0.006666666666666666, 0.013333333333333332
3420, 0.017333333333333333, 0.006666666666666666, 0.014666666666666666
3421, 0.017333333333333333, 0.006666666666666666, 0.016
3422, 0.017333333333333333, 0.006666666666666666, 0.017333333333333333
3423, 0.017333333333333333, 0.006666666666666666, 0.018666666666666665
3424, 0.017333333333333333, 0.006666666666666666, 0.02
3425, 0.017333333333333333, 0.008, 0.0013333333333333333
3426, 0.017333333333333333, 0.008, 0.0
3427, 0.017333333333333333, 0.008, 0.0026666666666666666
3428, 0.017333333333333333, 0.008, 0.004
3429, 0.017333333333333333, 0.008, 0.005333333333333333
3430, 0.017333333333333333, 0.008, 0.006666666666666666
3431, 0.017333333333333333, 0.008, 0.008
3432, 0.017333333333333333, 0.008, 0.009333333333333332
3433, 0.017333333333333333, 0.008, 0.010666666666666666
3434, 0.017333333333333333, 0.008, 0.012
3435, 0.017333333333333333, 0.008, 0.013333333333333332
3436, 0.017333333333333333, 0.008, 0.014666666666666666
3437, 0.017333333333333333, 0.008, 0.016
3438, 0.017333333333333333, 0.008, 0.017333333333333333
3439, 0.017333333333333333, 0.008, 0.018666666666666665
3440, 0.017333333333333333, 0.008, 0.02
3441, 0.017333333333333333, 0.009333333333333332, 0.0013333333333333333
3442, 0.017333333333333333, 0.009333333333333332, 0.0
3443, 0.017333333333333333, 0.009333333333333332, 0.0026666666666666666
3444, 0.017333333333333333, 0.009333333333333332, 0.004
3445, 0.017333333333333333, 0.009333333333333332, 0.005333333333333333
3446, 0.017333333333333333, 0.009333333333333332, 0.006666666666666666
3447, 0.017333333333333333, 0.009333333333333332, 0.008
3448, 0.017333333333333333, 0.009333333333333332, 0.009333333333333332
3449, 0.017333333333333333, 0.009333333333333332, 0.010666666666666666
3450, 0.017333333333333333, 0.009333333333333332, 0.012
3451, 0.017333333333333333, 0.009333333333333332, 0.013333333333333332
3452, 0.017333333333333333, 0.009333333333333332, 0.014666666666666666
3453, 0.017333333333333333, 0.009333333333333332, 0.016
3454, 0.017333333333333333, 0.009333333333333332, 0.017333333333333333
3455, 0.017333333333333333, 0.009333333333333332, 0.018666666666666665
3456, 0.017333333333333333, 0.009333333333333332, 0.02
3457, 0.017333333333333333, 0.010666666666666666, 0.0013333333333333333
3458, 0.017333333333333333, 0.010666666666666666, 0.0
3459, 0.017333333333333333, 0.010666666666666666, 0.0026666666666666666
3460, 0.017333333333333333, 0.010666666666666666, 0.004
3461, 0.017333333333333333, 0.010666666666666666, 0.005333333333333333
3462, 0.017333333333333333, 0.010666666666666666, 0.006666666666666666
3463, 0.017333333333333333, 0.010666666666666666, 0.008
3464, 0.017333333333333333, 0.010666666666666666, 0.009333333333333332
3465, 0.017333333333333333, 0.010666666666666666, 0.010666666666666666
3466, 0.017333333333333333, 0.010666666666666666, 0.012
3467, 0.017333333333333333, 0.010666666666666666, 0.013333333333333332
3468, 0.017333333333333333, 0.010666666666666666, 0.014666666666666666
3469, 0.017333333333333333, 0.010666666666666666, 0.016
3470, 0.017333333333333333, 0.010666666666666666, 0.017333333333333333
3471, 0.017333333333333333, 0.010666666666666666, 0.018666666666666665
3472, 0.017333333333333333, 0.010666666666666666, 0.02
3473, 0.017333333333333333, 0.012, 0.0013333333333333333
3474, 0.017333333333333333, 0.012, 0.0
3475, 0.017333333333333333, 0.012, 0.0026666666666666666
3476, 0.017333333333333333, 0.012, 0.004
3477, 0.017333333333333333, 0.012, 0.005333333333333333
3478, 0.017333333333333333, 0.012, 0.006666666666666666
3479, 0.017333333333333333, 0.012, 0.008
3480, 0.017333333333333333, 0.012, 0.009333333333333332
3481, 0.017333333333333333, 0.012, 0.010666666666666666
3482, 0.017333333333333333, 0.012, 0.012
3483, 0.017333333333333333, 0.012, 0.013333333333333332
3484, 0.017333333333333333, 0.012, 0.014666666666666666
3485, 0.017333333333333333, 0.012, 0.016
3486, 0.017333333333333333, 0.012, 0.017333333333333333
3487, 0.017333333333333333, 0.012, 0.018666666666666665
3488, 0.017333333333333333, 0.012, 0.02
3489, 0.017333333333333333, 0.013333333333333332, 0.0013333333333333333
3490, 0.017333333333333333, 0.013333333333333332, 0.0
3491, 0.017333333333333333, 0.013333333333333332, 0.0026666666666666666
3492, 0.017333333333333333, 0.013333333333333332, 0.004
3493, 0.017333333333333333, 0.013333333333333332, 0.005333333333333333
3494, 0.017333333333333333, 0.013333333333333332, 0.006666666666666666
3495, 0.017333333333333333, 0.013333333333333332, 0.008
3496, 0.017333333333333333, 0.013333333333333332, 0.009333333333333332
3497, 0.017333333333333333, 0.013333333333333332, 0.010666666666666666
3498, 0.017333333333333333, 0.013333333333333332, 0.012
3499, 0.017333333333333333, 0.013333333333333332, 0.013333333333333332
3500, 0.017333333333333333, 0.013333333333333332, 0.014666666666666666
3501, 0.017333333333333333, 0.013333333333333332, 0.016
3502, 0.017333333333333333, 0.013333333333333332, 0.017333333333333333
3503, 0.017333333333333333, 0.013333333333333332, 0.018666666666666665
3504, 0.017333333333333333, 0.013333333333333332, 0.02
3505, 0.017333333333333333, 0.014666666666666666, 0.0013333333333333333
3506, 0.017333333333333333, 0.014666666666666666, 0.0
3507, 0.017333333333333333, 0.014666666666666666, 0.0026666666666666666
3508, 0.017333333333333333, 0.014666666666666666, 0.004
3509, 0.017333333333333333, 0.014666666666666666, 0.005333333333333333
3510, 0.017333333333333333, 0.014666666666666666, 0.006666666666666666
3511, 0.017333333333333333, 0.014666666666666666, 0.008
3512, 0.017333333333333333, 0.014666666666666666, 0.009333333333333332
3513, 0.017333333333333333, 0.014666666666666666, 0.010666666666666666
3514, 0.017333333333333333, 0.014666666666666666, 0.012
3515, 0.017333333333333333, 0.014666666666666666, 0.013333333333333332
3516, 0.017333333333333333, 0.014666666666666666, 0.014666666666666666
3517, 0.017333333333333333, 0.014666666666666666, 0.016
3518, 0.017333333333333333, 0.014666666666666666, 0.017333333333333333
3519, 0.017333333333333333, 0.014666666666666666, 0.018666666666666665
3520, 0.017333333333333333, 0.014666666666666666, 0.02
3521, 0.017333333333333333, 0.016, 0.0013333333333333333
3522, 0.017333333333333333, 0.016, 0.0
3523, 0.017333333333333333, 0.016, 0.0026666666666666666
3524, 0.017333333333333333, 0.016, 0.004
3525, 0.017333333333333333, 0.016, 0.005333333333333333
3526, 0.017333333333333333, 0.016, 0.006666666666666666
3527, 0.017333333333333333, 0.016, 0.008
3528, 0.017333333333333333, 0.016, 0.009333333333333332
3529, 0.017333333333333333, 0.016, 0.010666666666666666
3530, 0.017333333333333333, 0.016, 0.012
3531, 0.017333333333333333, 0.016, 0.013333333333333332
3532, 0.017333333333333333, 0.016, 0.014666666666666666
3533, 0.017333333333333333, 0.016, 0.016
3534, 0.017333333333333333, 0.016, 0.017333333333333333
3535, 0.017333333333333333, 0.016, 0.018666666666666665
3536, 0.017333333333333333, 0.016, 0.02
3537, 0.017333333333333333, 0.017333333333333333, 0.0013333333333333333
3538, 0.017333333333333333, 0.017333333333333333, 0.0
3539, 0.017333333333333333, 0.017333333333333333, 0.0026666666666666666
3540, 0.017333333333333333, 0.017333333333333333, 0.004
3541, 0.017333333333333333, 0.017333333333333333, 0.005333333333333333
3542, 0.017333333333333333, 0.017333333333333333, 0.006666666666666666
3543, 0.017333333333333333, 0.017333333333333333, 0.008
3544, 0.017333333333333333, 0.017333333333333333, 0.009333333333333332
3545, 0.017333333333333333, 0.017333333333333333, 0.010666666666666666
3546, 0.017333333333333333, 0.017333333333333333, 0.012
3547, 0.017333333333333333, 0.017333333333333333, 0.013333333333333332
3548, 0.017333333333333333, 0.017333333333333333, 0.014666666666666666
3549, 0.017333333333333333, 0.017333333333333333, 0.016
3550, 0.017333333333333333, 0.017333333333333333, 0.017333333333333333
3551, 0.017333333333333333, 0.017333333333333333, 0.018666666666666665
3552, 0.017333333333333333, 0.017333333333333333, 0.02
3553, 0.017333333333333333, 0.018666666666666665, 0.0013333333333333333
3554, 0.017333333333333333, 0.018666666666666665, 0.0
3555, 0.017333333333333333, 0.018666666666666665, 0.0026666666666666666
3556, 0.017333333333333333, 0.018666666666666665, 0.004
3557, 0.017333333333333333, 0.018666666666666665, 0.005333333333333333
3558, 0.017333333333333333, 0.018666666666666665, 0.006666666666666666
3559, 0.017333333333333333, 0.018666666666666665, 0.008
3560, 0.017333333333333333, 0.018666666666666665, 0.009333333333333332
3561, 0.017333333333333333, 0.018666666666666665, 0.010666666666666666
3562, 0.017333333333333333, 0.018666666666666665, 0.012
3563, 0.017333333333333333, 0.018666666666666665, 0.013333333333333332
3564, 0.017333333333333333, 0.018666666666666665, 0.014666666666666666
3565, 0.017333333333333333, 0.018666666666666665, 0.016
3566, 0.017333333333333333, 0.018666666666666665, 0.017333333333333333
3567, 0.017333333333333333, 0.018666666666666665, 0.018666666666666665
3568, 0.017333333333333333, 0.018666666666666665, 0.02
3569, 0.017333333333333333, 0.02, 0.0013333333333333333
3570, 0.017333333333333333, 0.02, 0.0
3571, 0.017333333333333333, 0.02, 0.0026666666666666666
3572, 0.017333333333333333, 0.02, 0.004
3573, 0.017333333333333333, 0.02, 0.005333333333333333
3574, 0.017333333333333333, 0.02, 0.006666666666666666
3575, 0.017333333333333333, 0.02, 0.008
3576, 0.017333333333333333, 0.02, 0.009333333333333332
3577, 0.017333333333333333, 0.02, 0.010666666666666666
3578, 0.017333333333333333, 0.02, 0.012
3579, 0.017333333333333333, 0.02, 0.013333333333333332
3580, 0.017333333333333333, 0.02, 0.014666666666666666
3581, 0.017333333333333333, 0.02, 0.016
3582, 0.017333333333333333, 0.02, 0.017333333333333333
3583, 0.017333333333333333, 0.02, 0.018666666666666665
3584, 0.017333333333333333, 0.02, 0.02
3585, 0.018666666666666665, 0.0, 0.0013333333333333333
3586, 0.018666666666666665, 0.0, 0.0
3587, 0.018666666666666665, 0.0013333333333333333, 0.0013333333333333333
3588, 0.018666666666666665, 0.0013333333333333333, 0.0
3589, 0.018666666666666665, 0.0, 0.0026666666666666666
3590, 0.018666666666666665, 0.0013333333333333333, 0.0026666666666666666
3591, 0.018666666666666665, 0.0, 0.004
3592, 0.018666666666666665, 0.0013333333333333333, 0.004
3593, 0.018666666666666665, 0.0, 0.005333333333333333
3594, 0.018666666666666665, 0.0013333333333333333, 0.005333333333333333
3595, 0.018666666666666665, 0.0, 0.006666666666666666
3596, 0.018666666666666665, 0.0013333333333333333, 0.006666666666666666
3597, 0.018666666666666665, 0.0, 0.008
3598, 0.018666666666666665, 0.0013333333333333333, 0.008
3599, 0.018666666666666665, 0.0, 0.009333333333333332
3600, 0.018666666666666665, 0.0013333333333333333, 0.009333333333333332
3601, 0.018666666666666665, 0.0, 0.010666666666666666
3602, 0.018666666666666665, 0.0013333333333333333, 0.010666666666666666
3603, 0.018666666666666665, 0.0, 0.012
3604, 0.018666666666666665, 0.0013333333333333333, 0.012
3605, 0.018666666666666665, 0.0, 0.013333333333333332
3606, 0.018666666666666665, 0.0013333333333333333, 0.013333333333333332
3607, 0.018666666666666665, 0.0, 0.014666666666666666
3608, 0.018666666666666665, 0.0013333333333333333, 0.014666666666666666
3609, 0.018666666666666665, 0.0, 0.016
3610, 0.018666666666666665, 0.0013333333333333333, 0.016
3611, 0.018666666666666665, 0.0, 0.017333333333333333
3612, 0.018666666666666665, 0.0013333333333333333, 0.017333333333333333
3613, 0.018666666666666665, 0.0, 0.018666666666666665
3614, 0.018666666666666665, 0.0013333333333333333, 0.018666666666666665
3615, 0.018666666666666665, 0.0, 0.02
3616, 0.018666666666666665, 0.0013333333333333333, 0.02
3617, 0.018666666666666665, 0.0026666666666666666, 0.0013333333333333333
3618, 0.018666666666666665, 0.0026666666666666666, 0.0
3619, 0.018666666666666665, 0.0026666666666666666, 0.0026666666666666666
3620, 0.018666666666666665, 0.0026666666666666666, 0.004
3621, 0.018666666666666665, 0.0026666666666666666, 0.005333333333333333
3622, 0.018666666666666665, 0.0026666666666666666, 0.006666666666666666
3623, 0.018666666666666665, 0.0026666666666666666, 0.008
3624, 0.018666666666666665, 0.0026666666666666666, 0.009333333333333332
3625, 0.018666666666666665, 0.0026666666666666666, 0.010666666666666666
3626, 0.018666666666666665, 0.0026666666666666666, 0.012
3627, 0.018666666666666665, 0.0026666666666666666, 0.013333333333333332
3628, 0.018666666666666665, 0.0026666666666666666, 0.014666666666666666
3629, 0.018666666666666665, 0.0026666666666666666, 0.016
3630, 0.018666666666666665, 0.0026666666666666666, 0.017333333333333333
3631, 0.018666666666666665, 0.0026666666666666666, 0.018666666666666665
3632, 0.018666666666666665, 0.0026666666666666666, 0.02
3633, 0.018666666666666665, 0.004, 0.0013333333333333333
3634, 0.018666666666666665, 0.004, 0.0
3635, 0.018666666666666665, 0.004, 0.0026666666666666666
3636, 0.018666666666666665, 0.004, 0.004
3637, 0.018666666666666665, 0.004, 0.005333333333333333
3638, 0.018666666666666665, 0.004, 0.006666666666666666
3639, 0.018666666666666665, 0.004, 0.008
3640, 0.018666666666666665, 0.004, 0.009333333333333332
3641, 0.018666666666666665, 0.004, 0.010666666666666666
3642, 0.018666666666666665, 0.004, 0.012
3643, 0.018666666666666665, 0.004, 0.013333333333333332
3644, 0.018666666666666665, 0.004, 0.014666666666666666
3645, 0.018666666666666665, 0.004, 0.016
3646, 0.018666666666666665, 0.004, 0.017333333333333333
3647, 0.018666666666666665, 0.004, 0.018666666666666665
3648, 0.018666666666666665, 0.004, 0.02
3649, 0.018666666666666665, 0.005333333333333333, 0.0013333333333333333
3650, 0.018666666666666665, 0.005333333333333333, 0.0
3651, 0.018666666666666665, 0.005333333333333333, 0.0026666666666666666
3652, 0.018666666666666665, 0.005333333333333333, 0.004
3653, 0.018666666666666665, 0.005333333333333333, 0.005333333333333333
3654, 0.018666666666666665, 0.005333333333333333, 0.006666666666666666
3655, 0.018666666666666665, 0.005333333333333333, 0.008
3656, 0.018666666666666665, 0.005333333333333333, 0.009333333333333332
3657, 0.018666666666666665, 0.005333333333333333, 0.010666666666666666
3658, 0.018666666666666665, 0.005333333333333333, 0.012
3659, 0.018666666666666665, 0.005333333333333333, 0.013333333333333332
3660, 0.018666666666666665, 0.005333333333333333, 0.014666666666666666
3661, 0.018666666666666665, 0.005333333333333333, 0.016
3662, 0.018666666666666665, 0.005333333333333333, 0.017333333333333333
3663, 0.018666666666666665, 0.005333333333333333, 0.018666666666666665
3664, 0.018666666666666665, 0.005333333333333333, 0.02
3665, 0.018666666666666665, 0.006666666666666666, 0.0013333333333333333
3666, 0.018666666666666665, 0.006666666666666666, 0.0
3667, 0.018666666666666665, 0.006666666666666666, 0.0026666666666666666
3668, 0.018666666666666665, 0.006666666666666666, 0.004
3669, 0.018666666666666665, 0.006666666666666666, 0.005333333333333333
3670, 0.018666666666666665, 0.006666666666666666, 0.006666666666666666
3671, 0.018666666666666665, 0.006666666666666666, 0.008
3672, 0.018666666666666665, 0.006666666666666666, 0.009333333333333332
3673, 0.018666666666666665, 0.006666666666666666, 0.010666666666666666
3674, 0.018666666666666665, 0.006666666666666666, 0.012
3675, 0.018666666666666665, 0.006666666666666666, 0.013333333333333332
3676, 0.018666666666666665, 0.006666666666666666, 0.014666666666666666
3677, 0.018666666666666665, 0.006666666666666666, 0.016
3678, 0.018666666666666665, 0.006666666666666666, 0.017333333333333333
3679, 0.018666666666666665, 0.006666666666666666, 0.018666666666666665
3680, 0.018666666666666665, 0.006666666666666666, 0.02
3681, 0.018666666666666665, 0.008, 0.0013333333333333333
3682, 0.018666666666666665, 0.008, 0.0
3683, 0.018666666666666665, 0.008, 0.0026666666666666666
3684, 0.018666666666666665, 0.008, 0.004
3685, 0.018666666666666665, 0.008, 0.005333333333333333
3686, 0.018666666666666665, 0.008, 0.006666666666666666
3687, 0.018666666666666665, 0.008, 0.008
3688, 0.018666666666666665, 0.008, 0.009333333333333332
3689, 0.018666666666666665, 0.008, 0.010666666666666666
3690, 0.018666666666666665, 0.008, 0.012
3691, 0.018666666666666665, 0.008, 0.013333333333333332
3692, 0.018666666666666665, 0.008, 0.014666666666666666
3693, 0.018666666666666665, 0.008, 0.016
3694, 0.018666666666666665, 0.008, 0.017333333333333333
3695, 0.018666666666666665, 0.008, 0.018666666666666665
3696, 0.018666666666666665, 0.008, 0.02
3697, 0.018666666666666665, 0.009333333333333332, 0.0013333333333333333
3698, 0.018666666666666665, 0.009333333333333332, 0.0
3699, 0.018666666666666665, 0.009333333333333332, 0.0026666666666666666
3700, 0.018666666666666665, 0.009333333333333332, 0.004
3701, 0.018666666666666665, 0.009333333333333332, 0.005333333333333333
3702, 0.018666666666666665, 0.009333333333333332, 0.006666666666666666
3703, 0.018666666666666665, 0.009333333333333332, 0.008
3704, 0.018666666666666665, 0.009333333333333332, 0.009333333333333332
3705, 0.018666666666666665, 0.009333333333333332, 0.010666666666666666
3706, 0.018666666666666665, 0.009333333333333332, 0.012
3707, 0.018666666666666665, 0.009333333333333332, 0.013333333333333332
3708, 0.018666666666666665, 0.009333333333333332, 0.014666666666666666
3709, 0.018666666666666665, 0.009333333333333332, 0.016
3710, 0.018666666666666665, 0.009333333333333332, 0.017333333333333333
3711, 0.018666666666666665, 0.009333333333333332, 0.018666666666666665
3712, 0.018666666666666665, 0.009333333333333332, 0.02
3713, 0.018666666666666665, 0.010666666666666666, 0.0013333333333333333
3714, 0.018666666666666665, 0.010666666666666666, 0.0
3715, 0.018666666666666665, 0.010666666666666666, 0.0026666666666666666
3716, 0.018666666666666665, 0.010666666666666666, 0.004
3717, 0.018666666666666665, 0.010666666666666666, 0.005333333333333333
3718, 0.018666666666666665, 0.010666666666666666, 0.006666666666666666
3719, 0.018666666666666665, 0.010666666666666666, 0.008
3720, 0.018666666666666665, 0.010666666666666666, 0.009333333333333332
3721, 0.018666666666666665, 0.010666666666666666, 0.010666666666666666
3722, 0.018666666666666665, 0.010666666666666666, 0.012
3723, 0.018666666666666665, 0.010666666666666666, 0.013333333333333332
3724, 0.018666666666666665, 0.010666666666666666, 0.014666666666666666
3725, 0.018666666666666665, 0.010666666666666666, 0.016
3726, 0.018666666666666665, 0.010666666666666666, 0.017333333333333333
3727, 0.018666666666666665, 0.010666666666666666, 0.018666666666666665
3728, 0.018666666666666665, 0.010666666666666666, 0.02
3729, 0.018666666666666665, 0.012, 0.0013333333333333333
3730, 0.018666666666666665, 0.012, 0.0
3731, 0.018666666666666665, 0.012, 0.0026666666666666666
3732, 0.018666666666666665, 0.012, 0.004
3733, 0.018666666666666665, 0.012, 0.005333333333333333
3734, 0.018666666666666665, 0.012, 0.006666666666666666
3735, 0.018666666666666665, 0.012, 0.008
3736, 0.018666666666666665, 0.012, 0.009333333333333332
3737, 0.018666666666666665, 0.012, 0.010666666666666666
3738, 0.018666666666666665, 0.012, 0.012
3739, 0.018666666666666665, 0.012, 0.013333333333333332
3740, 0.018666666666666665, 0.012, 0.014666666666666666
3741, 0.018666666666666665, 0.012, 0.016
3742, 0.018666666666666665, 0.012, 0.017333333333333333
3743, 0.018666666666666665, 0.012, 0.018666666666666665
3744, 0.018666666666666665, 0.012, 0.02
3745, 0.018666666666666665, 0.013333333333333332, 0.0013333333333333333
3746, 0.018666666666666665, 0.013333333333333332, 0.0
3747, 0.018666666666666665, 0.013333333333333332, 0.0026666666666666666
3748, 0.018666666666666665, 0.013333333333333332, 0.004
3749, 0.018666666666666665, 0.013333333333333332, 0.005333333333333333
3750, 0.018666666666666665, 0.013333333333333332, 0.006666666666666666
3751, 0.018666666666666665, 0.013333333333333332, 0.008
3752, 0.018666666666666665, 0.013333333333333332, 0.009333333333333332
3753, 0.018666666666666665, 0.013333333333333332, 0.010666666666666666
3754, 0.018666666666666665, 0.013333333333333332, 0.012
3755, 0.018666666666666665, 0.013333333333333332, 0.013333333333333332
3756, 0.018666666666666665, 0.013333333333333332, 0.014666666666666666
3757, 0.018666666666666665, 0.013333333333333332, 0.016
3758, 0.018666666666666665, 0.013333333333333332, 0.017333333333333333
3759, 0.018666666666666665, 0.013333333333333332, 0.018666666666666665
3760, 0.018666666666666665, 0.013333333333333332, 0.02
3761, 0.018666666666666665, 0.014666666666666666, 0.0013333333333333333
3762, 0.018666666666666665, 0.014666666666666666, 0.0
3763, 0.018666666666666665, 0.014666666666666666, 0.0026666666666666666
3764, 0.018666666666666665, 0.014666666666666666, 0.004
3765, 0.018666666666666665, 0.014666666666666666, 0.005333333333333333
3766, 0.018666666666666665, 0.014666666666666666, 0.006666666666666666
3767, 0.018666666666666665, 0.014666666666666666, 0.008
3768, 0.018666666666666665, 0.014666666666666666, 0.009333333333333332
3769, 0.018666666666666665, 0.014666666666666666, 0.010666666666666666
3770, 0.018666666666666665, 0.014666666666666666, 0.012
3771, 0.018666666666666665, 0.014666666666666666, 0.013333333333333332
3772, 0.018666666666666665, 0.014666666666666666, 0.014666666666666666
3773, 0.018666666666666665, 0.014666666666666666, 0.016
3774, 0.018666666666666665, 0.014666666666666666, 0.017333333333333333
3775, 0.018666666666666665, 0.014666666666666666, 0.018666666666666665
3776, 0.018666666666666665, 0.014666666666666666, 0.02
3777, 0.018666666666666665, 0.016, 0.0013333333333333333
3778, 0.018666666666666665, 0.016, 0.0
3779, 0.018666666666666665, 0.016, 0.0026666666666666666
3780, 0.018666666666666665, 0.016, 0.004
3781, 0.018666666666666665, 0.016, 0.005333333333333333
3782, 0.018666666666666665, 0.016, 0.006666666666666666
3783, 0.018666666666666665, 0.016, 0.008
3784, 0.018666666666666665, 0.016, 0.009333333333333332
3785, 0.018666666666666665, 0.016, 0.010666666666666666
3786, 0.018666666666666665, 0.016, 0.012
3787, 0.018666666666666665, 0.016, 0.013333333333333332
3788, 0.018666666666666665, 0.016, 0.014666666666666666
3789, 0.018666666666666665, 0.016, 0.016
3790, 0.018666666666666665, 0.016, 0.017333333333333333
3791, 0.018666666666666665, 0.016, 0.018666666666666665
3792, 0.018666666666666665, 0.016, 0.02
3793, 0.018666666666666665, 0.017333333333333333, 0.0013333333333333333
3794, 0.018666666666666665, 0.017333333333333333, 0.0
3795, 0.018666666666666665, 0.017333333333333333, 0.0026666666666666666
3796, 0.018666666666666665, 0.017333333333333333, 0.004
3797, 0.018666666666666665, 0.017333333333333333, 0.005333333333333333
3798, 0.018666666666666665, 0.017333333333333333, 0.006666666666666666
3799, 0.018666666666666665, 0.017333333333333333, 0.008
3800, 0.018666666666666665, 0.017333333333333333, 0.009333333333333332
3801, 0.018666666666666665, 0.017333333333333333, 0.010666666666666666
3802, 0.018666666666666665, 0.017333333333333333, 0.012
3803, 0.018666666666666665, 0.017333333333333333, 0.013333333333333332
3804, 0.018666666666666665, 0.017333333333333333, 0.014666666666666666
3805, 0.018666666666666665, 0.017333333333333333, 0.016
3806, 0.018666666666666665, 0.017333333333333333, 0.017333333333333333
3807, 0.018666666666666665, 0.017333333333333333, 0.018666666666666665
3808, 0.018666666666666665, 0.017333333333333333, 0.02
3809, 0.018666666666666665, 0.018666666666666665, 0.0013333333333333333
3810, 0.018666666666666665, 0.018666666666666665, 0.0
3811, 0.018666666666666665, 0.018666666666666665, 0.0026666666666666666
3812, 0.018666666666666665, 0.018666666666666665, 0.004
3813, 0.018666666666666665, 0.018666666666666665, 0.005333333333333333
3814, 0.018666666666666665, 0.018666666666666665, 0.006666666666666666
3815, 0.018666666666666665, 0.018666666666666665, 0.008
3816, 0.018666666666666665, 0.018666666666666665, 0.009333333333333332
3817, 0.018666666666666665, 0.018666666666666665, 0.010666666666666666
3818, 0.018666666666666665, 0.018666666666666665, 0.012
3819, 0.018666666666666665, 0.018666666666666665, 0.013333333333333332
3820, 0.018666666666666665, 0.018666666666666665, 0.014666666666666666
3821, 0.018666666666666665, 0.018666666666666665, 0.016
3822, 0.018666666666666665, 0.018666666666666665, 0.017333333333333333
3823, 0.018666666666666665, 0.018666666666666665, 0.018666666666666665
3824, 0.018666666666666665, 0.018666666666666665, 0.02
3825, 0.018666666666666665, 0.02, 0.0013333333333333333
3826, 0.018666666666666665, 0.02, 0.0
3827, 0.018666666666666665, 0.02, 0.0026666666666666666
3828, 0.018666666666666665, 0.02, 0.004
3829, 0.018666666666666665, 0.02, 0.005333333333333333
3830, 0.018666666666666665, 0.02, 0.006666666666666666
3831, 0.018666666666666665, 0.02, 0.008
3832, 0.018666666666666665, 0.02, 0.009333333333333332
3833, 0.018666666666666665, 0.02, 0.010666666666666666
3834, 0.018666666666666665, 0.02, 0.012
3835, 0.018666666666666665, 0.02, 0.013333333333333332
3836, 0.018666666666666665, 0.02, 0.014666666666666666
3837, 0.018666666666666665, 0.02, 0.016
3838, 0.018666666666666665, 0.02, 0.017333333333333333
3839, 0.018666666666666665, 0.02, 0.018666666666666665
3840, 0.018666666666666665, 0.02, 0.02
3841, 0.02, 0.0, 0.0013333333333333333
3842, 0.02, 0.0, 0.0
3843, 0.02, 0.0013333333333333333, 0.0013333333333333333
3844, 0.02, 0.0013333333333333333, 0.0
3845, 0.02, 0.0, 0.0026666666666666666
3846, 0.02, 0.0013333333333333333, 0.0026666666666666666
3847, 0.02, 0.0, 0.004
3848, 0.02, 0.0013333333333333333, 0.004
3849, 0.02, 0.0, 0.005333333333333333
3850, 0.02, 0.0013333333333333333, 0.005333333333333333
3851, 0.02, 0.0, 0.006666666666666666
3852, 0.02, 0.0013333333333333333, 0.006666666666666666
3853, 0.02, 0.0, 0.008
3854, 0.02, 0.0013333333333333333, 0.008
3855, 0.02, 0.0, 0.009333333333333332
3856, 0.02, 0.0013333333333333333, 0.009333333333333332
3857, 0.02, 0.0, 0.010666666666666666
3858, 0.02, 0.0013333333333333333, 0.010666666666666666
3859, 0.02, 0.0, 0.012
3860, 0.02, 0.0013333333333333333, 0.012
3861, 0.02, 0.0, 0.013333333333333332
3862, 0.02, 0.0013333333333333333, 0.013333333333333332
3863, 0.02, 0.0, 0.014666666666666666
3864, 0.02, 0.0013333333333333333, 0.014666666666666666
3865, 0.02, 0.0, 0.016
3866, 0.02, 0.0013333333333333333, 0.016
3867, 0.02, 0.0, 0.017333333333333333
3868, 0.02, 0.0013333333333333333, 0.017333333333333333
3869, 0.02, 0.0, 0.018666666666666665
3870, 0.02, 0.0013333333333333333, 0.018666666666666665
3871, 0.02, 0.0, 0.02
3872, 0.02, 0.0013333333333333333, 0.02
3873, 0.02, 0.0026666666666666666, 0.0013333333333333333
3874, 0.02, 0.0026666666666666666, 0.0
3875, 0.02, 0.0026666666666666666, 0.0026666666666666666
3876, 0.02, 0.0026666666666666666, 0.004
3877, 0.02, 0.0026666666666666666, 0.005333333333333333
3878, 0.02, 0.0026666666666666666, 0.006666666666666666
3879, 0.02, 0.0026666666666666666, 0.008
3880, 0.02, 0.0026666666666666666, 0.009333333333333332
3881, 0.02, 0.0026666666666666666, 0.010666666666666666
3882, 0.02, 0.0026666666666666666, 0.012
3883, 0.02, 0.0026666666666666666, 0.013333333333333332
3884, 0.02, 0.0026666666666666666, 0.014666666666666666
3885, 0.02, 0.0026666666666666666, 0.016
3886, 0.02, 0.0026666666666666666, 0.017333333333333333
3887, 0.02, 0.0026666666666666666, 0.018666666666666665
3888, 0.02, 0.0026666666666666666, 0.02
3889, 0.02, 0.004, 0.0013333333333333333
3890, 0.02, 0.004, 0.0
3891, 0.02, 0.004, 0.0026666666666666666
3892, 0.02, 0.004, 0.004
3893, 0.02, 0.004, 0.005333333333333333
3894, 0.02, 0.004, 0.006666666666666666
3895, 0.02, 0.004, 0.008
3896, 0.02, 0.004, 0.009333333333333332
3897, 0.02, 0.004, 0.010666666666666666
3898, 0.02, 0.004, 0.012
3899, 0.02, 0.004, 0.013333333333333332
3900, 0.02, 0.004, 0.014666666666666666
3901, 0.02, 0.004, 0.016
3902, 0.02, 0.004, 0.017333333333333333
3903, 0.02, 0.004, 0.018666666666666665
3904, 0.02, 0.004, 0.02
3905, 0.02, 0.005333333333333333, 0.0013333333333333333
3906, 0.02, 0.005333333333333333, 0.0
3907, 0.02, 0.005333333333333333, 0.0026666666666666666
3908, 0.02, 0.005333333333333333, 0.004
3909, 0.02, 0.005333333333333333, 0.005333333333333333
3910, 0.02, 0.005333333333333333, 0.006666666666666666
3911, 0.02, 0.005333333333333333, 0.008
3912, 0.02, 0.005333333333333333, 0.009333333333333332
3913, 0.02, 0.005333333333333333, 0.010666666666666666
3914, 0.02, 0.005333333333333333, 0.012
3915, 0.02, 0.005333333333333333, 0.013333333333333332
3916, 0.02, 0.005333333333333333, 0.014666666666666666
3917, 0.02, 0.005333333333333333, 0.016
3918, 0.02, 0.005333333333333333, 0.017333333333333333
3919, 0.02, 0.005333333333333333, 0.018666666666666665
3920, 0.02, 0.005333333333333333, 0.02
3921, 0.02, 0.006666666666666666, 0.0013333333333333333
3922, 0.02, 0.006666666666666666, 0.0
3923, 0.02, 0.006666666666666666, 0.0026666666666666666
3924, 0.02, 0.006666666666666666, 0.004
3925, 0.02, 0.006666666666666666, 0.005333333333333333
3926, 0.02, 0.006666666666666666, 0.006666666666666666
3927, 0.02, 0.006666666666666666, 0.008
3928, 0.02, 0.006666666666666666, 0.009333333333333332
3929, 0.02, 0.006666666666666666, 0.010666666666666666
3930, 0.02, 0.006666666666666666, 0.012
3931, 0.02, 0.006666666666666666, 0.013333333333333332
3932, 0.02, 0.006666666666666666, 0.014666666666666666
3933, 0.02, 0.006666666666666666, 0.016
3934, 0.02, 0.006666666666666666, 0.017333333333333333
3935, 0.02, 0.006666666666666666, 0.018666666666666665
3936, 0.02, 0.006666666666666666, 0.02
3937, 0.02, 0.008, 0.0013333333333333333
3938, 0.02, 0.008, 0.0
3939, 0.02, 0.008, 0.0026666666666666666
3940, 0.02, 0.008, 0.004
3941, 0.02, 0.008, 0.005333333333333333
3942, 0.02, 0.008, 0.006666666666666666
3943, 0.02, 0.008, 0.008
3944, 0.02, 0.008, 0.009333333333333332
3945, 0.02, 0.008, 0.010666666666666666
3946, 0.02, 0.008, 0.012
3947, 0.02, 0.008, 0.013333333333333332
3948, 0.02, 0.008, 0.014666666666666666
3949, 0.02, 0.008, 0.016
3950, 0.02, 0.008, 0.017333333333333333
3951, 0.02, 0.008, 0.018666666666666665
3952, 0.02, 0.008, 0.02
3953, 0.02, 0.009333333333333332, 0.0013333333333333333
3954, 0.02, 0.009333333333333332, 0.0
3955, 0.02, 0.009333333333333332, 0.0026666666666666666
3956, 0.02, 0.009333333333333332, 0.004
3957, 0.02, 0.009333333333333332, 0.005333333333333333
3958, 0.02, 0.009333333333333332, 0.006666666666666666
3959, 0.02, 0.009333333333333332, 0.008
3960, 0.02, 0.009333333333333332, 0.009333333333333332
3961, 0.02, 0.009333333333333332, 0.010666666666666666
3962, 0.02, 0.009333333333333332, 0.012
3963, 0.02, 0.009333333333333332, 0.013333333333333332
3964, 0.02, 0.009333333333333332, 0.014666666666666666
3965, 0.02, 0.009333333333333332, 0.016
3966, 0.02, 0.009333333333333332, 0.017333333333333333
3967, 0.02, 0.009333333333333332, 0.018666666666666665
3968, 0.02, 0.009333333333333332, 0.02
3969, 0.02, 0.010666666666666666, 0.0013333333333333333
3970, 0.02, 0.010666666666666666, 0.0
3971, 0.02, 0.010666666666666666, 0.0026666666666666666
3972, 0.02, 0.010666666666666666, 0.004
3973, 0.02, 0.010666666666666666, 0.005333333333333333
3974, 0.02, 0.010666666666666666, 0.006666666666666666
3975, 0.02, 0.010666666666666666, 0.008
3976, 0.02, 0.010666666666666666, 0.009333333333333332
3977, 0.02, 0.010666666666666666, 0.010666666666666666
3978, 0.02, 0.010666666666666666, 0.012
3979, 0.02, 0.010666666666666666, 0.013333333333333332
3980, 0.02, 0.010666666666666666, 0.014666666666666666
3981, 0.02, 0.010666666666666666, 0.016
3982, 0.02, 0.010666666666666666, 0.017333333333333333
3983, 0.02, 0.010666666666666666, 0.018666666666666665
3984, 0.02, 0.010666666666666666, 0.02
3985, 0.02, 0.012, 0.0013333333333333333
3986, 0.02, 0.012, 0.0
3987, 0.02, 0.012, 0.0026666666666666666
3988, 0.02, 0.012, 0.004
3989, 0.02, 0.012, 0.005333333333333333
3990, 0.02, 0.012, 0.006666666666666666
3991, 0.02, 0.012, 0.008
3992, 0.02, 0.012, 0.009333333333333332
3993, 0.02, 0.012, 0.010666666666666666
3994, 0.02, 0.012, 0.012
3995, 0.02, 0.012, 0.013333333333333332
3996, 0.02, 0.012, 0.014666666666666666
3997, 0.02, 0.012, 0.016
3998, 0.02, 0.012, 0.017333333333333333
3999, 0.02, 0.012, 0.018666666666666665
4000, 0.02, 0.012, 0.02
4001, 0.02, 0.013333333333333332, 0.0013333333333333333
4002, 0.02, 0.013333333333333332, 0.0
4003, 0.02, 0.013333333333333332, 0.0026666666666666666
4004, 0.02, 0.013333333333333332, 0.004
4005, 0.02, 0.013333333333333332, 0.005333333333333333
4006, 0.02, 0.013333333333333332, 0.006666666666666666
4007, 0.02, 0.013333333333333332, 0.008
4008, 0.02, 0.013333333333333332, 0.009333333333333332
4009, 0.02, 0.013333333333333332, 0.010666666666666666
4010, 0.02, 0.013333333333333332, 0.012
4011, 0.02, 0.013333333333333332, 0.013333333333333332
4012, 0.02, 0.013333333333333332, 0.014666666666666666
4013, 0.02, 0.013333333333333332, 0.016
4014, 0.02, 0.013333333333333332, 0.017333333333333333
4015, 0.02, 0.013333333333333332, 0.018666666666666665
4016, 0.02, 0.013333333333333332, 0.02
4017, 0.02, 0.014666666666666666, 0.0013333333333333333
4018, 0.02, 0.014666666666666666, 0.0
4019, 0.02, 0.014666666666666666, 0.0026666666666666666
4020, 0.02, 0.014666666666666666, 0.004
4021, 0.02, 0.014666666666666666, 0.005333333333333333
4022, 0.02, 0.014666666666666666, 0.006666666666666666
4023, 0.02, 0.014666666666666666, 0.008
4024, 0.02, 0.014666666666666666, 0.009333333333333332
4025, 0.02, 0.014666666666666666, 0.010666666666666666
4026, 0.02, 0.014666666666666666, 0.012
4027, 0.02, 0.014666666666666666, 0.013333333333333332
4028, 0.02, 0.014666666666666666, 0.014666666666666666
4029, 0.02, 0.014666666666666666, 0.016
4030, 0.02, 0.014666666666666666, 0.017333333333333333
4031, 0.02, 0.014666666666666666, 0.018666666666666665
4032, 0.02, 0.014666666666666666, 0.02
4033, 0.02, 0.016, 0.0013333333333333333
4034, 0.02, 0.016, 0.0
4035, 0.02, 0.016, 0.0026666666666666666
4036, 0.02, 0.016, 0.004
4037, 0.02, 0.016, 0.005333333333333333
4038, 0.02, 0.016, 0.006666666666666666
4039, 0.02, 0.016, 0.008
4040, 0.02, 0.016, 0.009333333333333332
4041, 0.02, 0.016, 0.010666666666666666
4042, 0.02, 0.016, 0.012
4043, 0.02, 0.016, 0.013333333333333332
4044, 0.02, 0.016, 0.014666666666666666
4045, 0.02, 0.016, 0.016
4046, 0.02, 0.016, 0.017333333333333333
4047, 0.02, 0.016, 0.018666666666666665
4048, 0.02, 0.016, 0.02
4049, 0.02, 0.017333333333333333, 0.0013333333333333333
4050, 0.02, 0.017333333333333333, 0.0
4051, 0.02, 0.017333333333333333, 0.0026666666666666666
4052, 0.02, 0.017333333333333333, 0.004
4053, 0.02, 0.017333333333333333, 0.005333333333333333
4054, 0.02, 0.017333333333333333, 0.006666666666666666
4055, 0.02, 0.017333333333333333, 0.008
4056, 0.02, 0.017333333333333333, 0.009333333333333332
4057, 0.02, 0.017333333333333333, 0.010666666666666666
4058, 0.02, 0.017333333333333333, 0.012
4059, 0.02, 0.017333333333333333, 0.013333333333333332
4060, 0.02, 0.017333333333333333, 0.014666666666666666
4061, 0.02, 0.017333333333333333, 0.016
4062, 0.02, 0.017333333333333333, 0.017333333333333333
4063, 0.02, 0.017333333333333333, 0.018666666666666665
4064, 0.02, 0.017333333333333333, 0.02
4065, 0.02, 0.018666666666666665, 0.0013333333333333333
4066, 0.02, 0.018666666666666665, 0.0
4067, 0.02, 0.018666666666666665, 0.0026666666666666666
4068, 0.02, 0.018666666666666665, 0.004
4069, 0.02, 0.018666666666666665, 0.005333333333333333
4070, 0.02, 0.018666666666666665, 0.006666666666666666
4071, 0.02, 0.018666666666666665, 0.008
4072, 0.02, 0.018666666666666665, 0.009333333333333332
4073, 0.02, 0.018666666666666665, 0.010666666666666666
4074, 0.02, 0.018666666666666665, 0.012
4075, 0.02, 0.018666666666666665, 0.013333333333333332
4076, 0.02, 0.018666666666666665, 0.014666666666666666
4077, 0.02, 0.018666666666666665, 0.016
4078, 0.02, 0.018666666666666665, 0.017333333333333333
4079, 0.02, 0.018666666666666665, 0.018666666666666665
4080, 0.02, 0.018666666666666665, 0.02
4081, 0.02, 0.02, 0.0013333333333333333
4082, 0.02, 0.02, 0.0
4083, 0.02, 0.02, 0.0026666666666666666
4084, 0.02, 0.02, 0.004
4085, 0.02, 0.02, 0.005333333333333333
4086, 0.02, 0.02, 0.006666666666666666
4087, 0.02, 0.02, 0.008
4088, 0.02, 0.02, 0.009333333333333332
4089, 0.02, 0.02, 0.010666666666666666
4090, 0.02, 0.02, 0.012
4091, 0.02, 0.02, 0.013333333333333332
4092, 0.02, 0.02, 0.014666666666666666
4093, 0.02, 0.02, 0.016
4094, 0.02, 0.02, 0.017333333333333333
4095, 0.02, 0.02, 0.018666666666666665
4096, 0.02, 0.02, 0.02
*ELEMENT, TYPE=C3D8
1, 1, 2, 3, 4, 5, 6, 7, 8
2, 9, 1, 4, 10, 11, 5, 8, 12
3, 13, 9, 10, 14, 15, 11, 12, 16
4, 17, 13, 14, 18, 19, 15, 16, 20
5, 21, 17, 18, 22, 23, 19, 20, 24
6, 25, 21, 22, 26, 27, 23, 24, 28
7, 29, 25, 26, 30, 31, 27, 28, 32
8, 33, 29, 30, 34, 35, 31, 32, 36
9, 37, 33, 34, 38, 39, 35, 36, 40
10, 41, 37, 38, 42, 43, 39, 40, 44
11, 45, 41, 42, 46, 47, 43, 44, 48
12, 49, 45, 46, 50, 51, 47, 48, 52
13, 53, 49, 50, 54, 55, 51, 52, 56
14, 57, 53, 54, 58, 59, 55, 56, 60
15, 61, 57, 58, 62, 63, 59, 60, 64
16, 5, 6, 7, 8, 65, 66, 67, 68
17, 11, 5, 8, 12, 69, 65, 68, 70
18, 15, 11, 12, 16, 71, 69, 70, 72
19, 19, 15, 16, 20, 73, 71, 72, 74
20, 23, 19, 20, 24, 75, 73, 74, 76
21, 27, 23, 24, 28, 77, 75, 76, 78
22, 31, 27, 28, 32, 79, 77, 78, 80
23, 35, 31, 32, 36, 81, 79, 80, 82
24, 39, 35, 36, 40, 83, 81, 82, 84
25, 43, 39, 40, 44, 85, 83, 84, 86
26, 47, 43, 44, 48, 87, 85, 86, 88
27, 51, 47, 48, 52, 89, 87, 88, 90
28, 55, 51, 52, 56, 91, 89, 90, 92
29, 59, 55, 56, 60, 93, 91, 92, 94
30, 63, 59, 60, 64, 95, 93, 94, 96
31, 65, 66, 67, 68, 97, 98, 99, 100
32, 69, 65, 68, 70, 101, 97, 100, 102
33, 71, 69, 70, 72, 103, 101, 102, 104
34, 73, 71, 72, 74, 105, 103, 104, 106
35, 75, 73, 74, 76, 107, 105, 106, 108
36, 77, 75, 76, 78, 109, 107, 108, 110
37, 79, 77, 78, 80, 111, 109, 110, 112
38, 81, 79, 80, 82, 113, 111, 112, 114
39, 83, 81, 82, 84, 115, 113, 114, 116
40, 85, 83, 84, 86, 117, 115, 116, 118
41, 87, 85, 86, 88, 119, 117, 118, 120
42, 89, 87, 88, 90, 121, 119, 120, 122
43, 91, 89, 90, 92, 123, 121, 122, 124
44, 93, 91, 92, 94, 125, 123, 124, 126
45, 95, 93, 94, 96, 127, 125, 126, 128
46, 97, 98, 99, 100, 129, 130, 131, 132
47, 101, 97, 100, 102, 133, 129, 132, 134
48, 103, 101, 102, 104, 135, 133, 134, 136
49, 105, 103, 104, 106, 137, 135, 136, 138
50, 107, 105, 106, 108, 139, 137, 138, 140
51, 109, 107, 108, 110, 141, 139, 140, 142
52, 111, 109, 110, 112, 143, 141, 142, 144
53, 113, 111, 112, 114, 145, 143, 144, 146
54, 115, 113, 114, 116, 147, 145, 146, 148
55, 117, 115, 116, 118, 149, 147, 148, 150
56, 119, 117, 118, 120, 151, 149, 150, 152
57, 121, 119, 120, 122, 153, 151, 152, 154
58, 123, 121, 122, 124, 155, 153, 154, 156
59, 125, 123, 124, 126, 157, 155, 156, 158
60, 127, 125, 126, 128, 159, 157, 158, 160
61, 129, 130, 131, 132, 161, 162, 163, 164
62, 133, 129, 132, 134, 165, 161, 164, 166
63, 135, 133, 134, 136, 167, 165, 166, 168
64, 137, 135, 136, 138, 169, 167, 168, 170
65, 139, 137, 138, 140, 171, 169, 170, 172
66, 141, 139, 140, 142, 173, 171, 172, 174
67, 143, 141, 142, 144, 175, 173, 174, 176
68, 145, 143, 144, 146, 177, 175, 176, 178
69, 147, 145, 146, 148, 179, 177, 178, 180
70, 149, 147, 148, 150, 181, 179, 180, 182
71, 151, 149, 150, 152, 183, 181, 182, 184
72, 153, 151, 152, 154, 185, 183, 184, 186
73, 155, 153, 154, 156, 187, 185, 186, 188
74, 157, 155, 156, 158, 189, 187, 188, 190
75, 159, 157, 158, 160, 191, 189, 190, 192
76, 161, 162, 163, 164, 193, 194, 195, 196
77, 165, 161, 164, 166, 197, 193, 196, 198
78, 167, 165, 166, 168, 199, 197, 198, 200
79, 169, 167, 168, 170, 201, 199, 200, 202
80, 171, 169, 170, 172, 203, 201, 202, 204
81, 173, 171, 172, 174, 205, 203, 204, 206
82, 175, 173, 174, 176, 207, 205, 206, 208
83, 177, 175, 176, 178, 209, 207, 208, 210
84, 179, 177, 178, 180, 211, 209, 210, 212
85, 181, 179, 180, 182, 213, 211, 212, 214
86, 183, 181, 182, 184, 215, 213, 214, 216
87, 185, 183, 184, 186, 217, 215, 216, 218
88, 187, 185, 186, 188, 219, 217, 218, 220
89, 189, 187, 188, 190, 221, 219, 220, 222
90, 191, 189, 190, 192, 223, 221, 222, 224
91, 193, 194, 195, 196, 225, 226, 227, 228
92, 197, 193, 196, 198, 229, 225, 228, 230
93, 199, 197, 198, 200, 231, 229, 230, 232
94, 201, 199, 200, 202, 233, 231, 232, 234
95, 203, 201, 202, 204, 235, 233, 234, 236
96, 205, 203, 204, 206, 237, 235, 236, 238
97, 207, 205, 206, 208, 239, 237, 238, 240
98, 209, 207, 208, 210, 241, 239, 240, 242
99, 211, 209, 210, 212, 243, 241, 242, 244
100, 213, 211, 212, 214, 245, 243, 244, 246
101, 215, 213, 214, 216, 247, 245, 246, 248
102, 217, 215, 216, 218, 249, 247, 248, 250
103, 219, 217, 218, 220, 251, 249, 250, 252
104, 221, 219, 220, 222, 253, 251, 252, 254
105, 223, 221, 222, 224, 255, 253, 254, 256
106, 225, 226, 227, 228, 257, 258, 259, 260
107, 229, 225, 228, 230, 261, 257, 260, 262
108, 231, 229, 230, 232, 263, 261, 262, 264
109, 233, 231, 232, 234, 265, 263, 264, 266
110, 235, 233, 234, 236, 267, 265, 266, 268
111, 237, 235, 236, 238, 269, 267, 268, 270
112, 239, 237, 238, 240, 271, 269, 270, 272
113, 241, 239, 240, 242, 273, 271, 272, 274
114, 243, 241, 242, 244, 275, 273, 274, 276
115, 245, 243, 244, 246, 277, 275, 276, 278
116, 247, 245, 246, 248, 279, 277, 278, 280
117, 249, 247, 248, 250, 281, 279, 280, 282
118, 251, 249, 250, 252, 283, 281, 282, 284
119, 253, 251, 252, 254, 285, 283, 284, 286
120, 255, 253, 254, 256, 287, 285, 286, 288
121, 257, 258, 259, 260, 289, 290, 291, 292
122, 261, 257, 260, 262, 293, 289, 292, 294
123, 263, 261, 262, 264, 295, 293, 294, 296
124, 265, 263, 264, 266, 297, 295, 296, 298
125, 267, 265, 266, 268, 299, 297, 298, 300
126, 269, 267, 268, 270, 301, 299, 300, 302
127, 271, 269, 270, 272, 303, 301, 302, 304
128, 273, 271, 272, 274, 305, 303, 304, 306
129, 275, 273, 274, 276, 307, 305, 306, 308
130, 277, 275, 276, 278, 309, 307, 308, 310
131, 279, 277, 278, 280, 311, 309, 310, 312
132, 281, 279, 280, 282, 313, 311, 312, 314
133, 283, 281, 282, 284, 315, 313, 314, 316
134, 285, 283, 284, 286, 317, 315, 316, 318
135, 287, 285, 286, 288, 319, 317, 318, 320
136, 289, 290, 291, 292, 321, 322, 323, 324
137, 293, 289, 292, 294, 325, 321, 324, 326
138, 295, 293, 294, 296, 327, 325, 326, 328
139, 297, 295, 296, 298, 329, 327, 328, 330
140, 299, 297, 298, 300, 331, 329, 330, 332
141, 301, 299, 300, 302, 333, 331, 332, 334
142, 303, 301, 302, 304, 335, 333, 334, 336
143, 305, 303, 304, 306, 337, 335, 336, 338
144, 307, 305, 306, 308, 339, 337, 338, 340
145, 309, 307, 308, 310, 341, 339, 340, 342
146, 311, 309, 310, 312, 343, 341, 342, 344
147, 313, 311, 312, 314, 345, 343, 344, 346
148, 315, 313, 314, 316, 347, 345, 346, 348
149, 317, 315, 316, 318, 349, 347, 348, 350
150, 319, 317, 318, 320, 351, 349, 350, 352
151, 321, 322, 323, 324, 353, 354, 355, 356
152, 325, 321, 324, 326, 357, 353, 356, 358
153, 327, 325, 326, 328, 359, 357, 358, 360
154, 329, 327, 328, 330, 361, 359, 360, 362
155, 331, 329, 330, 332, 363, 361, 362, 364
156, 333, 331, 332, 334, 365, 363, 364, 366
157, 335, 333, 334, 336, 367, 365, 366, 368
158, 337, 335, 336, 338, 369, 367, 368, 370
159, 339, 337, 338, 340, 371, 369, 370, 372
160, 341, 339, 340, 342, 373, 371, 372, 374
161, 343, 341, 342, 344, 375, 373, 374, 376
162, 345, 343, 344, 346, 377, 375, 376, 378
163, 347, 345, 346, 348, 379, 377, 378, 380
164, 349, 347, 348, 350, 381, 379, 380, 382
165, 351, 349, 350, 352, 383, 381, 382, 384
166, 353, 354, 355, 356, 385, 386, 387, 388
167, 357, 353, 356, 358, 389, 385, 388, 390
168, 359, 357, 358, 360, 391, 389, 390, 392
169, 361, 359, 360, 362, 393, 391, 392, 394
170, 363, 361, 362, 364, 395, 393, 394, 396
171, 365, 363, 364, 366, 397, 395, 396, 398
172, 367, 365, 366, 368, 399, 397, 398, 400
173, 369, 367, 368, 370, 401, 399, 400, 402
174, 371, 369, 370, 372, 403, 401, 402, 404
175, 373, 371, 372, 374, 405, 403, 404, 406
176, 375, 373, 374, 376, 407, 405, 406, 408
177, 377, 375, 376, 378, 409, 407, 408, 410
178, 379, 377, 378, 380, 411, 409, 410, 412
179, 381, 379, 380, 382, 413, 411, 412, 414
180, 383, 381, 382, 384, 415, 413, 414, 416
181, 385, 386, 387, 388, 417, 418, 419, 420
182, 389, 385, 388, 390, 421, 417, 420, 422
183, 391, 389, 390, 392, 423, 421, 422, 424
184, 393, 391, 392, 394, 425, 423, 424, 426
185, 395, 393, 394, 396, 427, 425, 426, 428
186, 397, 395, 396, 398, 429, 427, 428, 430
187, 399, 397, 398, 400, 431, 429, 430, 432
188, 401, 399, 400, 402, 433, 431, 432, 434
189, 403, 401, 402, 404, 435, 433, 434, 436
190, 405, 403, 404, 406, 437, 435, 436, 438
191, 407, 405, 406, 408, 439, 437, 438, 440
192, 409, 407, 408, 410, 441, 439, 440, 442
193, 411, 409, 410, 412, 443, 441, 442, 444
194, 413, 411, 412, 414, 445, 443, 444, 446
195, 415, 413, 414, 416, 447, 445, 446, 448
196, 417, 418, 419, 420, 449, 450, 451, 452
197, 421, 417, 420, 422, 453, 449, 452, 454
198, 423, 421, 422, 424, 455, 453, 454, 456
199, 425, 423, 424, 426, 457, 455, 456, 458
200, 427, 425, 426, 428, 459, 457, 458, 460
201, 429, 427, 428, 430, 461, 459, 460, 462
202, 431, 429, 430, 432, 463, 461, 462, 464
203, 433, 431, 432, 434, 465, 463, 464, 466
204, 435, 433, 434, 436, 467, 465, 466, 468
205, 437, 435, 436, 438, 469, 467, 468, 470
206, 439, 437, 438, 440, 471, 469, 470, 472
207, 441, 439, 440, 442, 473, 471, 472, 474
208, 443, 441, 442, 444, 475, 473, 474, 476
209, 445, 443, 444, 446, 477, 475, 476, 478
210, 447, 445, 446, 448, 479, 477, 478, 480
211, 449, 450, 451, 452, 481, 482, 483, 484
212, 453, 449, 452, 454, 485, 481, 484, 486
213, 455, 453, 454, 456, 487, 485, 486, 488
214, 457, 455, 456, 458, 489, 487, 488, 490
215, 459, 457, 458, 460, 491, 489, 490, 492
216, 461, 459, 460, 462, 493, 491, 492, 494
217, 463, 461, 462, 464, 495, 493, 494, 496
218, 465, 463, 464, 466, 497, 495, 496, 498
219, 467, 465, 466, 468, 499, 497, 498, 500
220, 469, 467, 468, 470, 501, 499, 500, 502
221, 471, 469, 470, 472, 503, 501, 502, 504
222, 473, 471, 472, 474, 505, 503, 504, 506
223, 475, 473, 474, 476, 507, 505, 506, 508
224, 477, 475, 476, 478, 509, 507, 508, 510
225, 479, 477, 478, 480, 511, 509, 510, 512
226, 513, 514, 2, 1, 515, 516, 6, 5
227, 517, 513, 1, 9, 518, 515, 5, 11
228, 519, 517, 9, 13, 520, 518, 11, 15
229, 521, 519, 13, 17, 522, 520, 15, 19
230, 523, 521, 17, 21, 524, 522, 19, 23
231, 525, 523, 21, 25, 526, 524, 23, 27
232, 527, 525, 25, 29, 528, 526, 27, 31
233, 529, 527, 29, 33, 530, 528, 31, 35
234, 531, 529, 33, 37, 532, 530, 35, 39
235, 533, 531, 37, 41, 534, 532, 39, 43
236, 535, 533, 41, 45, 536, 534, 43, 47
237, 537, 535, 45, 49, 538, 536, 47, 51
238, 539, 537, 49, 53, 540, 538, 51, 55
239, 541, 539, 53, 57, 542, 540, 55, 59
240, 543, 541, 57, 61, 544, 542, 59, 63
241, 515, 516, 6, 5, 545, 546, 66, 65
242, 518, 515, 5, 11, 547, 545, 65, 69
243, 520, 518, 11, 15, 548, 547, 69, 71
244, 522, 520, 15, 19, 549, 548, 71, 73
245, 524, 522, 19, 23, 550, 549, 73, 75
246, 526, 524, 23, 27, 551, 550, 75, 77
247, 528, 526, 27, 31, 552, 551, 77, 79
248, 530, 528, 31, 35, 553, 552, 79, 81
249, 532, 530, 35, 39, 554, 553, 81, 83
250, 534, 532, 39, 43, 555, 554, 83, 85
251, 536, 534, 43, 47, 556, 555, 85, 87
252, 538, 536, 47, 51, 557, 556, 87, 89
253, 540, 538, 51, 55, 558, 557, 89, 91
254, 542, 540, 55, 59, 559, 558, 91, 93
255, 544, 542, 59, 63, 560, 559, 93, 95
256, 545, 546, 66, 65, 561, 562, 98, 97
257, 547, 545, 65, 69, 563, 561, 97, 101
258, 548, 547, 69, 71, 564, 563, 101, 103
259, 549, 548, 71, 73, 565, 564, 103, 105
260, 550, 549, 73, 75, 566, 565, 105, 107
261, 551, 550, 75, 77, 567, 566, 107, 109
262, 552, 551, 77, 79, 568, 567, 109, 111
263, 553, 552, 79, 81, 569, 568, 111, 113
264, 554, 553, 81, 83, 570, 569, 113, 115
265, 555, 554, 83, 85, 571, 570, 115, 117
266, 556, 555, 85, 87, 572, 571, 117, 119
267, 557, 556, 87, 89, 573, 572, 119, 121
268, 558, 557, 89, 91, 574, 573, 121, 123
269, 559, 558, 91, 93, 575, 574, 123, 125
270, 560, 559, 93, 95, 576, 575, 125, 127
271, 561, 562, 98, 97, 577, 578, 130, 129
272, 563, 561, 97, 101, 579, 577, 129, 133
273, 564, 563, 101, 103, 580, 579, 133, 135
274, 565, 564, 103, 105, 581, 580, 135, 137
275, 566, 565, 105, 107, 582, 581, 137, 139
276, 567, 566, 107, 109, 583, 582, 139, 141
277, 568, 567, 109, 111, 584, 583, 141, 143
278, 569, 568, 111, 113, 585, 584, 143, 145
279, 570, 569, 113, 115, 586, 585, 145, 147
280, 571, 570, 115, 117, 587, 586, 147, 149
281, 572, 571, 117, 119, 588, 587, 149, 151
282, 573, 572, 119, 121, 589, 588, 151, 153
283, 574, 573, 121, 123, 590, 589, 153, 155
284, 575, 574, 123, 125, 591, 590, 155, 157
285, 576, 575, 125, 127, 592, 591, 157, 159
286, 577, 578, 130, 129, 593, 594, 162, 161
287, 579, 577, 129, 133, 595, 593, 161, 165
288, 580, 579, 133, 135, 596, 595, 165, 167
289, 581, 580, 135, 137, 597, 596, 167, 169
290, 582, 581, 137, 139, 598, 597, 169, 171
291, 583, 582, 139, 141, 599, 598, 171, 173
292, 584, 583, 141, 143, 600, 599, 173, 175
293, 585, 584, 143, 145, 601, 600, 175, 177
294, 586, 585, 145, 147, 602, 601, 177, 179
295, 587, 586, 147, 149, 603, 602, 179, 181
296, 588, 587, 149, 151, 604, 603, 181, 183
297, 589, 588, 151, 153, 605, 604, 183, 185
298, 590, 589, 153, 155, 606, 605, 185, 187
299, 591, 590, 155, 157, 607, 606, 187, 189
300, 592, 591, 157, 159, 608, 607, 189, 191
301, 593, 594, 162, 161, 609, 610, 194, 193
302, 595, 593, 161, 165, 611, 609, 193, 197
303, 596, 595, 165, 167, 612, 611, 197, 199
304, 597, 596, 167, 169, 613, 612, 199, 201
305, 598, 597, 169, 171, 614, 613, 201, 203
306, 599, 598, 171, 173, 615, 614, 203, 205
307, 600, 599, 173, 175, 616, 615, 205, 207
308, 601, 600, 175, 177, 617, 616, 207, 209
309, 602, 601, 177, 179, 618, 617, 209, 211
310, 603, 602, 179, 181, 619, 618, 211, 213
311, 604, 603, 181, 183, 620, 619, 213, 215
312, 605, 604, 183, 185, 621, 620, 215, 217
313, 606, 605, 185, 187, 622, 621, 217, 219
314, 607, 606, 187, 189, 623, 622, 219, 221
315, 608, 607, 189, 191, 624, 623, 221, 223
316, 609, 610, 194, 193, 625, 626, 226, 225
317, 611, 609, 193, 197, 627, 625, 225, 229
318, 612, 611, 197, 199, 628, 627, 229, 231
319, 613, 612, 199, 201, 629, 628, 231, 233
320, 614, 613, 201, 203, 630, 629, 233, 235
321, 615, 614, 203, 205, 631, 630, 235, 237
322, 616, 615, 205, 207, 632, 631, 237, 239
323, 617, 616, 207, 209, 633, 632, 239, 241
324, 618, 617, 209, 211, 634, 633, 241, 243
325, 619, 618, 211, 213, 635, 634, 243, 245
326, 620, 619, 213, 215, 636, 635, 245, 247
327, 621, 620, 215, 217, 637, 636, 247, 249
328, 622, 621, 217, 219, 638, 637, 249, 251
329, 623, 622, 219, 221, 639, 638, 251, 253
330, 624, 623, 221, 223, 640, 639, 253, 255
331, 625, 626, 226, 225, 641, 642, 258, 257
332, 627, 625, 225, 229, 643, 641, 257, 261
333, 628, 627, 229, 231, 644, 643, 261, 263
334, 629, 628, 231, 233, 645, 644, 263, 265
335, 630, 629, 233, 235, 646, 645, 265, 267
336, 631, 630, 235, 237, 647, 646, 267, 269
337, 632, 631, 237, 239, 648, 647, 269, 271
338, 633, 632, 239, 241, 649, 648, 271, 273
339, 634, 633, 241, 243, 650, 649, 273, 275
340, 635, 634, 243, 245, 651, 650, 275, 277
341, 636, 635, 245, 247, 652, 651, 277, 279
342, 637, 636, 247, 249, 653, 652, 279, 281
343, 638, 637, 249, 251, 654, 653, 281, 283
344, 639, 638, 251, 253, 655, 654, 283, 285
345, 640, 639, 253, 255, 656, 655, 285, 287
346, 641, 642, 258, 257, 657, 658, 290, 289
347, 643, 641, 257, 261, 659, 657, 289, 293
348, 644, 643, 261, 263, 660, 659, 293, 295
349, 645, 644, 263, 265, 661, 660, 295, 297
350, 646, 645, 265, 267, 662, 661, 297, 299
351, 647, 646, 267, 269, 663, 662, 299, 301
352, 648, 647, 269, 271, 664, 663, 301, 303
353, 649, 648, 271, 273, 665, 664, 303, 305
354, 650, 649, 273, 275, 666, 665, 305, 307
355, 651, 650, 275, 277, 667, 666, 307, 309
356, 652, 651, 277, 279, 668, 667, 309, 311
357, 653, 652, 279, 281, 669, 668, 311, 313
358, 654, 653, 281, 283, 670, 669, 313, 315
359, 655, 654, 283, 285, 671, 670, 315, 317
360, 656, 655, 285, 287, 672, 671, 317, 319
361, 657, 658, 290, 289, 673, 674, 322, 321
362, 659, 657, 289, 293, 675, 673, 321, 325
363, 660, 659, 293, 295, 676, 675, 325, 327
364, 661, 660, 295, 297, 677, 676, 327, 329
365, 662, 661, 297, 299, 678, 677, 329, 331
366, 663, 662, 299, 301, 679, 678, 331, 333
367, 664, 663, 301, 303, 680, 679, 333, 335
368, 665, 664, 303, 305, 681, 680, 335, 337
369, 666, 665, 305, 307, 682, 681, 337, 339
370, 667, 666, 307, 309, 683, 682, 339, 341
371, 668, 667, 309, 311, 684, 683, 341, 343
372, 669, 668, 311, 313, 685, 684, 343, 345
373, 670, 669, 313, 315, 686, 685, 345, 347
374, 671, 670, 315, 317, 687, 686, 347, 349
375, 672, 671, 317, 319, 688, 687, 349, 351
376, 673, 674, 322, 321, 689, 690, 354, 353
377, 675, 673, 321, 325, 691, 689, 353, 357
378, 676, 675, 325, 327, 692, 691, 357, 359
379, 677, 676, 327, 329, 693, 692, 359, 361
380, 678, 677, 329, 331, 694, 693, 361, 363
381, 679, 678, 331, 333, 695, 694, 363, 365
382, 680, 679, 333, 335, 696, 695, 365, 367
383, 681, 680, 335, 337, 697, 696, 367, 369
384, 682, 681, 337, 339, 698, 697, 369, 371
385, 683, 682, 339, 341, 699, 698, 371, 373
386, 684, 683, 341, 343, 700, 699, 373, 375
387, 685, 684, 343, 345, 701, 700, 375, 377
388, 686, 685, 345, 347, 702, 701, 377, 379
389, 687, 686, 347, 349, 703, 702, 379, 381
390, 688, 687, 349, 351, 704, 703, 381, 383
391, 689, 690, 354, 353, 705, 706, 386, 385
392, 691, 689, 353, 357, 707, 705, 385, 389
393, 692, 691, 357, 359, 708, 707, 389, 391
394, 693, 692, 359, 361, 709, 708, 391, 393
395, 694, 693, 361, 363, 710, 709, 393, 395
396, 695, 694, 363, 365, 711, 710, 395, 397
397, 696, 695, 365, 367, 712, 711, 397, 399
398, 697, 696, 367, 369, 713, 712, 399, 401
399, 698, 697, 369, 371, 714, 713, 401, 403
400, 699, 698, 371, 373, 715, 714, 403, 405
401, 700, 699, 373, 375, 716, 715, 405, 407
402, 701, 700, 375, 377, 717, 716, 407, 409
403, 702, 701, 377, 379, 718, 717, 409, 411
404, 703, 702, 379, 381, 719, 718, 411, 413
405, 704, 703, 381, 383, 720, 719, 413, 415
406, 705, 706, 386, 385, 721, 722, 418, 417
407, 707, 705, 385, 389, 723, 721, 417, 421
408, 708, 707, 389, 391, 724, 723, 421, 423
409, 709, 708, 391, 393, 725, 724, 423, 425
410, 710, 709, 393, 395, 726, 725, 425, 427
411, 711, 710, 395, 397, 727, 726, 427, 429
412, 712, 711, 397, 399, 728, 727, 429, 431
413, 713, 712, 399, 401, 729, 728, 431, 433
414, 714, 713, 401, 403, 730, 729, 433, 435
415, 715, 714, 403, 405, 731, 730, 435, 437
416, 716, 715, 405, 407, 732, 731, 437, 439
417, 717, 716, 407, 409, 733, 732, 439, 441
418, 718, 717, 409, 411, 734, 733, 441, 443
419, 719, 718, 411, 413, 735, 734, 443, 445
420, 720, 719, 413, 415, 736, 735, 445, 447
421, 721, 722, 418, 417, 737, 738, 450, 449
422, 723, 721, 417, 421, 739, 737, 449, 453
423, 724, 723, 421, 423, 740, 739, 453, 455
424, 725, 724, 423, 425, 741, 740, 455, 457
425, 726, 725, 425, 427, 742, 741, 457, 459
426, 727, 726, 427, 429, 743, 742, 459, 461
427, 728, 727, 429, 431, 744, 743, 461, 463
428, 729, 728, 431, 433, 745, 744, 463, 465
429, 730, 729, 433, 435, 746, 745, 465, 467
430, 731, 730, 435, 437, 747, 746, 467, 469
431, 732, 731, 437, 439, 748, 747, 469, 471
432, 733, 732, 439, 441, 749, 748, 471, 473
433, 734, 733, 441, 443, 750, 749, 473, 475
434, 735, 734, 443, 445, 751, 750, 475, 477
435, 736, 735, 445, 447, 752, 751, 477, 479
436, 737, 738, 450, 449, 753, 754, 482, 481
437, 739, 737, 449, 453, 755, 753, 481, 485
438, 740, 739, 453, 455, 756, 755, 485, 487
439, 741, 740, 455, 457, 757, 756, 487, 489
440, 742, 741, 457, 459, 758, 757, 489, 491
441, 743, 742, 459, 461, 759, 758, 491, 493
442, 744, 743, 461, 463, 760, 759, 493, 495
443, 745, 744, 463, 465, 761, 760, 495, 497
444, 746, 745, 465, 467, 762, 761, 497, 499
445, 747, 746, 467, 469, 763, 762, 499, 501
446, 748, 747, 469, 471, 764, 763, 501, 503
447, 749, 748, 471, 473, 765, 764, 503, 505
448, 750, 749, 473, 475, 766, 765, 505, 507
449, 751, 750, 475, 477, 767, 766, 507, 509
450, 752, 751, 477, 479, 768, 767, 509, 511
451, 769, 770, 514, 513, 771, 772, 516, 515
452, 773, 769, 513, 517, 774, 771, 515, 518
453, 775, 773, 517, 519, 776, 774, 518, 520
454, 777, 775, 519, 521, 778, 776, 520, 522
455, 779, 777, 521, 523, 780, 778, 522, 524
456, 781, 779, 523, 525, 782, 780, 524, 526
457, 783, 781, 525, 527, 784, 782, 526, 528
458, 785, 783, 527, 529, 786, 784, 528, 530
459, 787, 785, 529, 531, 788, 786, 530, 532
460, 789, 787, 531, 533, 790, 788, 532, 534
461, 791, 789, 533, 535, 792, 790, 534, 536
462, 793, 791, 535, 537, 794, 792, 536, 538
463, 795, 793, 537, 539, 796, 794, 538, 540
464, 797, 795, 539, 541, 798, 796, 540, 542
465, 799, 797, 541, 543, 800, 798, 542, 544
466, 771, 772, 516, 515, 801, 802, 546, 545
467, 774, 771, 515, 518, 803, 801, 545, 547
468, 776, 774, 518, 520, 804, 803, 547, 548
469, 778, 776, 520, 522, 805, 804, 548, 549
470, 780, 778, 522, 524, 806, 805, 549, 550
471, 782, 780, 524, 526, 807, 806, 550, 551
472, 784, 782, 526, 528, 808, 807, 551, 552
473, 786, 784, 528, 530, 809, 808, 552, 553
474, 788, 786, 530, 532, 810, 809, 553, 554
475, 790, 788, 532, 534, 811, 810, 554, 555
476, 792, 790, 534, 536, 812, 811, 555, 556
477, 794, 792, 536, 538, 813, 812, 556, 557
478, 796, 794, 538, 540, 814, 813, 557, 558
479, 798, 796, 540, 542, 815, 814, 558, 559
480, 800, 798, 542, 544, 816, 815, 559, 560
481, 801, 802, 546, 545, 817, 818, 562, 561
482, 803, 801, 545, 547, 819, 817, 561, 563
483, 804, 803, 547, 548, 820, 819, 563, 564
484, 805, 804, 548, 549, 821, 820, 564, 565
485, 806, 805, 549, 550, 822, 821, 565, 566
486, 807, 806, 550, 551, 823, 822, 566, 567
487, 808, 807, 551, 552, 824, 823, 567, 568
488, 809, 808, 552, 553, 825, 824, 568, 569
489, 810, 809, 553, 554, 826, 825, 569, 570
490, 811, 810, 554, 555, 827, 826, 570, 571
491, 812, 811, 555, 556, 828, 827, 571, 572
492, 813, 812, 556, 557, 829, 828, 572, 573
493, 814, 813, 557, 558, 830, 829, 573, 574
494, 815, 814, 558, 559, 831, 830, 574, 575
495, 816, 815, 559, 560, 832, 831, 575, 576
496, 817, 818, 562, 561, 833, 834, 578, 577
497, 819, 817, 561, 563, 835, 833, 577, 579
498, 820, 819, 563, 564, 836, 835, 579, 580
499, 821, 820, 564, 565, 837, 836, 580, 581
500, 822, 821, 565, 566, 838, 837, 581, 582
501, 823, 822, 566, 567, 839, 838, 582, 583
502, 824, 823, 567, 568, 840, 839, 583, 584
503, 825, 824, 568, 569, 841, 840, 584, 585
504, 826, 825, 569, 570, 842, 841, 585, 586
505, 827, 826, 570, 571, 843, 842, 586, 587
506, 828, 827, 571, 572, 844, 843, 587, 588
507, 829, 828, 572, 573, 845, 844, 588, 589
508, 830, 829, 573, 574, 846, 845, 589, 590
509, 831, 830, 574, 575, 847, 846, 590, 591
510, 832, 831, 575, 576, 848, 847, 591, 592
511, 833, 834, 578, 577, 849, 850, 594, 593
512, 835, 833, 577, 579, 851, 849, 593, 595
513, 836, 835, 579, 580, 852, 851, 595, 596
514, 837, 836, 580, 581, 853, 852, 596, 597
515, 838, 837, 581, 582, 854, 853, 597, 598
516, 839, 838, 582, 583, 855, 854, 598, 599
517, 840, 839, 583, 584, 856, 855, 599, 600
518, 841, 840, 584, 585, 857, 856, 600, 601
519, 842, 841, 585, 586, 858, 857, 601, 602
520, 843, 842, 586, 587, 859, 858, 602, 603
521, 844, 843, 587, 588, 860, 859, 603, 604
522, 845, 844, 588, 589, 861, 860, 604, 605
523, 846, 845, 589, 590, 862, 861, 605, 606
524, 847, 846, 590, 591, 863, 862, 606, 607
525, 848, 847, 591, 592, 864, 863, 607, 608
526, 849, 850, 594, 593, 865, 866, 610, 609
527, 851, 849, 593, 595, 867, 865, 609, 611
528, 852, 851, 595, 596, 868, 867, 611, 612
529, 853, 852, 596, 597, 869, 868, 612, 613
530, 854, 853, 597, 598, 870, 869, 613, 614
531, 855, 854, 598, 599, 871, 870, 614, 615
532, 856, 855, 599, 600, 872, 871, 615, 616
533, 857, 856, 600, 601, 873, 872, 616, 617
534, 858, 857, 601, 602, 874, 873, 617, 618
535, 859, 858, 602, 603, 875, 874, 618, 619
536, 860, 859, 603, 604, 876, 875, 619, 620
537, 861, 860, 604, 605, 877, 876, 620, 621
538, 862, 861, 605, 606, 878, 877, 621, 622
539, 863, 862, 606, 607, 879, 878, 622, 623
540, 864, 863, 607, 608, 880, 879, 623, 624
541, 865, 866, 610, 609, 881, 882, 626, 625
542, 867, 865, 609, 611, 883, 881, 625, 627
543, 868, 867, 611, 612, 884, 883, 627, 628
544, 869, 868, 612, 613, 885, 884, 628, 629
545, 870, 869, 613, 614, 886, 885, 629, 630
546, 871, 870, 614, 615, 887, 886, 630, 631
547, 872, 871, 615, 616, 888, 887, 631, 632
548, 873, 872, 616, 617, 889, 888, 632, 633
549, 874, 873, 617, 618, 890, 889, 633, 634
550, 875, 874, 618, 619, 891, 890, 634, 635
551, 876, 875, 619, 620, 892, 891, 635, 636
552, 877, 876, 620, 621, 893, 892, 636, 637
553, 878, 877, 621, 622, 894, 893, 637, 638
554, 879, 878, 622, 623, 895, 894, 638, 639
555, 880, 879, 623, 624, 896, 895, 639, 640
556, 881, 882, 626, 625, 897, 898, 642, 641
557, 883, 881, 625, 627, 899, 897, 641, 643
558, 884, 883, 627, 628, 900, 899, 643, 644
559, 885, 884, 628, 629, 901, 900, 644, 645
560, 886, 885, 629, 630, 902, 901, 645, 646
561, 887, 886, 630, 631, 903, 902, 646, 647
562, 888, 887, 631, 632, 904, 903, 647, 648
563, 889, 888, 632, 633, 905, 904, 648, 649
564, 890, 889, 633, 634, 906, 905, 649, 650
565, 891, 890, 634, 635, 907, 906, 650, 651
566, 892, 891, 635, 636, 908, 907, 651, 652
567, 893, 892, 636, 637, 909, 908, 652, 653
568, 894, 893, 637, 638, 910, 909, 653, 654
569, 895, 894, 638, 639, 911, 910, 654, 655
570, 896, 895, 639, 640, 912, 911, 655, 656
571, 897, 898, 642, 641, 913, 914, 658, 657
572, 899, 897, 641, 643, 915, 913, 657, 659
573, 900, 899, 643, 644, 916, 915, 659, 660
574, 901, 900, 644, 645, 917, 916, 660, 661
575, 902, 901, 645, 646, 918, 917, 661, 662
576, 903, 902, 646, 647, 919, 918, 662, 663
577, 904, 903, 647, 648, 920, 919, 663, 664
578, 905, 904, 648, 649, 921, 920, 664, 665
579, 906, 905, 649, 650, 922, 921, 665, 666
580, 907, 906, 650, 651, 923, 922, 666, 667
581, 908, 907, 651, 652, 924, 923, 667, 668
582, 909, 908, 652, 653, 925, 924, 668, 669
583, 910, 909, 653, 654, 926, 925, 669, 670
584, 911, 910, 654, 655, 927, 926, 670, 671
585, 912, 911, 655, 656, 928, 927, 671, 672
586, 913, 914, 658, 657, 929, 930, 674, 673
587, 915, 913, 657, 659, 931, 929, 673, 675
588, 916, 915, 659, 660, 932, 931, 675, 676
589, 917, 916, 660, 661, 933, 932, 676, 677
590, 918, 917, 661, 662, 934, 933, 677, 678
591, 919, 918, 662, 663, 935, 934, 678, 679
592, 920, 919, 663, 664, 936, 935, 679, 680
593, 921, 920, 664, 665, 937, 936, 680, 681
594, 922, 921, 665, 666, 938, 937, 681, 682
595, 923, 922, 666, 667, 939, 938, 682, 683
596, 924, 923, 667, 668, 940, 939, 683, 684
597, 925, 924, 668, 669, 941, 940, 684, 685
598, 926, 925, 669, 670, 942, 941, 685, 686
599, 927, 926, 670, 671, 943, 942, 686, 687
600, 928, 927, 671, 672, 944, 943, 687, 688
601, 929, 930, 674, 673, 945, 946, 690, 689
602, 931, 929, 673, 675, 947, 945, 689, 691
603, 932, 931, 675, 676, 948, 947, 691, 692
604, 933, 932, 676, 677, 949, 948, 692, 693
605, 934, 933, 677, 678, 950, 949, 693, 694
606, 935, 934, 678, 679, 951, 950, 694, 695
607, 936, 935, 679, 680, 952, 951, 695, 696
608, 937, 936, 680, 681, 953, 952, 696, 697
609, 938, 937, 681, 682, 954, 953, 697, 698
610, 939, 938, 682, 683, 955, 954, 698, 699
611, 940, 939, 683, 684, 956, 955, 699, 700
612, 941, 940, 684, 685, 957, 956, 700, 701
613, 942, 941, 685, 686, 958, 957, 701, 702
614, 943, 942, 686, 687, 959, 958, 702, 703
615, 944, 943, 687, 688, 960, 959, 703, 704
616, 945, 946, 690, 689, 961, 962, 706, 705
617, 947, 945, 689, 691, 963, 961, 705, 707
618, 948, 947, 691, 692, 964, 963, 707, 708
619, 949, 948, 692, 693, 965, 964, 708, 709
620, 950, 949, 693, 694, 966, 965, 709, 710
621, 951, 950, 694, 695, 967, 966, 710, 711
622, 952, 951, 695, 696, 968, 967, 711, 712
623, 953, 952, 696, 697, 969, 968, 712, 713
624, 954, 953, 697, 698, 970, 969, 713, 714
625, 955, 954, 698, 699, 971, 970, 714, 715
626, 956, 955, 699, 700, 972, 971, 715, 716
627, 957, 956, 700, 701, 973, 972, 716, 717
628, 958, 957, 701, 702, 974, 973, 717, 718
629, 959, 958, 702, 703, 975, 974, 718, 719
630, 960, 959, 703, 704, 976, 975, 719, 720
631, 961, 962, 706, 705, 977, 978, 722, 721
632, 963, 961, 705, 707, 979, 977, 721, 723
633, 964, 963, 707, 708, 980, 979, 723, 724
634, 965, 964, 708, 709, 981, 980, 724, 725
635, 966, 965, 709, 710, 982, 981, 725, 726
636, 967, 966, 710, 711, 983, 982, 726, 727
637, 968, 967, 711, 712, 984, 983, 727, 728
638, 969, 968, 712, 713, 985, 984, 728, 729
639, 970, 969, 713, 714, 986, 985, 729, 730
640, 971, 970, 714, 715, 987, 986, 730, 731
641, 972, 971, 715, 716, 988, 987, 731, 732
642, 973, 972, 716, 717, 989, 988, 732, 733
643, 974, 973, 717, 718, 990, 989, 733, 734
644, 975, 974, 718, 719, 991, 990, 734, 735
645, 976, 975, 719, 720, 992, 991, 735, 736
646, 977, 978, 722, 721, 993, 994, 738, 737
647, 979, 977, 721, 723, 995, 993, 737, 739
648, 980, 979, 723, 724, 996, 995, 739, 740
649, 981, 980, 724, 725, 997, 996, 740, 741
650, 982, 981, 725, 726, 998, 997, 741, 742
651, 983, 982, 726, 727, 999, 998, 742, 743
652, 984, 983, 727, 728, 1000, 999, 743, 744
653, 985, 984, 728, 729, 1001, 1000, 744, 745
654, 986, 985, 729, 730, 1002, 1001, 745, 746
655, 987, 986, 730, 731, 1003, 1002, 746, 747
656, 988, 987, 731, 732, 1004, 1003, 747, 748
657, 989, 988, 732, 733, 1005, 1004, 748, 749
658, 990, 989, 733, 734, 1006, 1005, 749, 750
659, 991, 990, 734, 735, 1007, 1006, 750, 751
660, 992, 991, 735, 736, 1008, 1007, 751, 752
661, 993, 994, 738, 737, 1009, 1010, 754, 753
662, 995, 993, 737, 739, 1011, 1009, 753, 755
663, 996, 995, 739, 740, 1012, 1011, 755, 756
664, 997, 996, 740, 741, 1013, 1012, 756, 757
665, 998, 997, 741, 742, 1014, 1013, 757, 758
666, 999, 998, 742, 743, 1015, 1014, 758, 759
667, 1000, 999, 743, 744, 1016, 1015, 759, 760
668, 1001, 1000, 744, 745, 1017, 1016, 760, 761
669, 1002, 1001, 745, 746, 1018, 1017, 761, 762
670, 1003, 1002, 746, 747, 1019, 1018, 762, 763
671, 1004, 1003, 747, 748, 1020, 1019, 763, 764
672, 1005, 1004, 748, 749, 1021, 1020, 764, 765
673, 1006, 1005, 749, 750, 1022, 1021, 765, 766
674, 1007, 1006, 750, 751, 1023, 1022, 766, 767
675, 1008, 1007, 751, 752, 1024, 1023, 767, 768
676, 1025, 1026, 770, 769, 1027, 1028, 772, 771
677, 1029, 1025, 769, 773, 1030, 1027, 771, 774
678, 1031, 1029, 773, 775, 1032, 1030, 774, 776
679, 1033, 1031, 775, 777, 1034, 1032, 776, 778
680, 1035, 1033, 777, 779, 1036, 1034, 778, 780
681, 1037, 1035, 779, 781, 1038, 1036, 780, 782
682, 1039, 1037, 781, 783, 1040, 1038, 782, 784
683, 1041, 1039, 783, 785, 1042, 1040, 784, 786
684, 1043, 1041, 785, 787, 1044, 1042, 786, 788
685, 1045, 1043, 787, 789, 1046, 1044, 788, 790
686, 1047, 1045, 789, 791, 1048, 1046, 790, 792
687, 1049, 1047, 791, 793, 1050, 1048, 792, 794
688, 1051, 1049, 793, 795, 1052, 1050, 794, 796
689, 1053, 1051, 795, 797, 1054, 1052, 796, 798
690, 1055, 1053, 797, 799, 1056, 1054, 798, 800
691, 1027, 1028, 772, 771, 1057, 1058, 802, 801
692, 1030, 1027, 771, 774, 1059, 1057, 801, 803
693, 1032, 1030, 774, 776, 1060, 1059, 803, 804
694, 1034, 1032, 776, 778, 1061, 1060, 804, 805
695, 1036, 1034, 778, 780, 1062, 1061, 805, 806
696, 1038, 1036, 780, 782, 1063, 1062, 806, 807
697, 1040, 1038, 782, 784, 1064, 1063, 807, 808
698, 1042, 1040, 784, 786, 1065, 1064, 808, 809
699, 1044, 1042, 786, 788, 1066, 1065, 809, 810
700, 1046, 1044, 788, 790, 1067, 1066, 810, 811
701, 1048, 1046, 790, 792, 1068, 1067, 811, 812
702, 1050, 1048, 792, 794, 1069, 1068, 812, 813
703, 1052, 1050, 794, 796, 1070, 1069, 813, 814
704, 1054, 1052, 796, 798, 1071, 1070, 814, 815
705, 1056, 1054, 798, 800, 1072, 1071, 815, 816
706, 1057, 1058, 802, 801, 1073, 1074, 818, 817
707, 1059, 1057, 801, 803, 1075, 1073, 817, 819
708, 1060, 1059, 803, 804, 1076, 1075, 819, 820
709, 1061, 1060, 804, 805, 1077, 1076, 820, 821
710, 1062, 1061, 805, 806, 1078, 1077, 821, 822
711, 1063, 1062, 806, 807, 1079, 1078, 822, 823
712, 1064, 1063, 807, 808, 1080, 1079, 823, 824
713, 1065, 1064, 808, 809, 1081, 1080, 824, 825
714, 1066, 1065, 809, 810, 1082, 1081, 825, 826
715, 1067, 1066, 810, 811, 1083, 1082, 826, 827
716, 1068, 1067, 811, 812, 1084, 1083, 827, 828
717, 1069, 1068, 812, 813, 1085, 1084, 828, 829
718, 1070, 1069, 813, 814, 1086, 1085, 829, 830
719, 1071, 1070, 814, 815, 1087, 1086, 830, 831
720, 1072, 1071, 815, 816, 1088, 1087, 831, 832
721, 1073, 1074, 818, 817, 1089, 1090, 834, 833
722, 1075, 1073, 817, 819, 1091, 1089, 833, 835
723, 1076, 1075, 819, 820, 1092, 1091, 835, 836
724, 1077, 1076, 820, 821, 1093, 1092, 836, 837
725, 1078, 1077, 821, 822, 1094, 1093, 837, 838
726, 1079, 1078, 822, 823, 1095, 1094, 838, 839
727, 1080, 1079, 823, 824, 1096, 1095, 839, 840
728, 1081, 1080, 824, 825, 1097, 1096, 840, 841
729, 1082, 1081, 825, 826, 1098, 1097, 841, 842
730, 1083, 1082, 826, 827, 1099, 1098, 842, 843
731, 1084, 1083, 827, 828, 1100, 1099, 843, 844
732, 1085, 1084, 828, 829, 1101, 1100, 844, 845
733, 1086, 1085, 829, 830, 1102, 1101, 845, 846
734, 1087, 1086, 830, 831, 1103, 1102, 846, 847
735, 1088, 1087, 831, 832, 1104, 1103, 847, 848
736, 1089, 1090, 834, 833, 1105, 1106, 850, 849
737, 1091, 1089, 833, 835, 1107, 1105, 849, 851
738, 1092, 1091, 835, 836, 1108, 1107, 851, 852
739, 1093, 1092, 836, 837, 1109, 1108, 852, 853
740, 1094, 1093, 837, 838, 1110, 1109, 853, 854
741, 1095, 1094, 838, 839, 1111, 1110, 854, 855
742, 1096, 1095, 839, 840, 1112, 1111, 855, 856
743, 1097, 1096, 840, 841, 1113, 1112, 856, 857
744, 1098, 1097, 841, 842, 1114, 1113, 857, 858
745, 1099, 1098, 842, 843, 1115, 1114, 858, 859
746, 1100, 1099, 843, 844, 1116, 1115, 859, 860
747, 1101, 1100, 844, 845, 1117, 1116, 860, 861
748, 1102, 1101, 845, 846, 1118, 1117, 861, 862
749, 1103, 1102, 846, 847, 1119, 1118, 862, 863
750, 1104, 1103, 847, 848, 1120, 1119, 863, 864
751, 1105, 1106, 850, 849, 1121, 1122, 866, 865
752, 1107, 1105, 849, 851, 1123, 1121, 865, 867
753, 1108, 1107, 851, 852, 1124, 1123, 867, 868
754, 1109, 1108, 852, 853, 1125, 1124, 868, 869
755, 1110, 1109, 853, 854, 1126, 1125, 869, 870
756, 1111, 1110, 854, 855, 1127, 1126, 870, 871
757, 1112, 1111, 855, 856, 1128, 1127, 871, 872
758, 1113, 1112, 856, 857, 1129, 1128, 872, 873
759, 1114, 1113, 857, 858, 1130, 1129, 873, 874
760, 1115, 1114, 858, 859, 1131, 1130, 874, 875
761, 1116, 1115, 859, 860, 1132, 1131, 875, 876
762, 1117, 1116, 860, 861, 1133, 1132, 876, 877
763, 1118, 1117, 861, 862, 1134, 1133, 877, 878
764, 1119, 1118, 862, 863, 1135, 1134, 878, 879
765, 1120, 1119, 863, 864, 1136, 1135, 879, 880
766, 1121, 1122, 866, 865, 1137, 1138, 882, 881
767, 1123, 1121, 865, 867, 1139, 1137, 881, 883
768, 1124, 1123, 867, 868, 1140, 1139, 883, 884
769, 1125, 1124, 868, 869, 1141, 1140, 884, 885
770, 1126, 1125, 869, 870, 1142, 1141, 885, 886
771, 1127, 1126, 870, 871, 1143, 1142, 886, 887
772, 1128, 1127, 871, 872, 1144, 1143, 887, 888
773, 1129, 1128, 872, 873, 1145, 1144, 888, 889
774, 1130, 1129, 873, 874, 1146, 1145, 889, 890
775, 1131, 1130, 874, 875, 1147, 1146, 890, 891
776, 1132, 1131, 875, 876, 1148, 1147, 891, 892
777, 1133, 1132, 876, 877, 1149, 1148, 892, 893
778, 1134, 1133, 877, 878, 1150, 1149, 893, 894
779, 1135, 1134, 878, 879, 1151, 1150, 894, 895
780, 1136, 1135, 879, 880, 1152, 1151, 895, 896
781, 1137, 1138, 882, 881, 1153, 1154, 898, 897
782, 1139, 1137, 881, 883, 1155, 1153, 897, 899
783, 1140, 1139, 883, 884, 1156, 1155, 899, 900
784, 1141, 1140, 884, 885, 1157, 1156, 900, 901
785, 1142, 1141, 885, 886, 1158, 1157, 901, 902
786, 1143, 1142, 886, 887, 1159, 1158, 902, 903
787, 1144, 1143, 887, 888, 1160, 1159, 903, 904
788, 1145, 1144, 888, 889, 1161, 1160, 904, 905
789, 1146, 1145, 889, 890, 1162, 1161, 905, 906
790, 1147, 1146, 890, 891, 1163, 1162, 906, 907
791, 1148, 1147, 891, 892, 1164, 1163, 907, 908
792, 1149, 1148, 892, 893, 1165, 1164, 908, 909
793, 1150, 1149, 893, 894, 1166, 1165, 909, 910
794, 1151, 1150, 894, 895, 1167, 1166, 910, 911
795, 1152, 1151, 895, 896, 1168, 1167, 911, 912
796, 1153, 1154, 898, 897, 1169, 1170, 914, 913
797, 1155, 1153, 897, 899, 1171, 1169, 913, 915
798, 1156, 1155, 899, 900, 1172, 1171, 915, 916
799, 1157, 1156, 900, 901, 1173, 1172, 916, 917
800, 1158, 1157, 901, 902, 1174, 1173, 917, 918
801, 1159, 1158, 902, 903, 1175, 1174, 918, 919
802, 1160, 1159, 903, 904, 1176, 1175, 919, 920
803, 1161, 1160, 904, 905, 1177, 1176, 920, 921
804, 1162, 1161, 905, 906, 1178, 1177, 921, 922
805, 1163, 1162, 906, 907, 1179, 1178, 922, 923
806, 1164, 1163, 907, 908, 1180, 1179, 923, 924
807, 1165, 1164, 908, 909, 1181, 1180, 924, 925
808, 1166, 1165, 909, 910, 1182, 1181, 925, 926
809, 1167, 1166, 910, 911, 1183, 1182, 926, 927
810, 1168, 1167, 911, 912, 1184, 1183, 927, 928
811, 1169, 1170, 914, 913, 1185, 1186, 930, 929
812, 1171, 1169, 913, 915, 1187, 1185, 929, 931
813, 1172, 1171, 915, 916, 1188, 1187, 931, 932
814, 1173, 1172, 916, 917, 1189, 1188, 932, 933
815, 1174, 1173, 917, 918, 1190, 1189, 933, 934
816, 1175, 1174, 918, 919, 1191, 1190, 934, 935
817, 1176, 1175, 919, 920, 1192, 1191, 935, 936
818, 1177, 1176, 920, 921, 1193, 1192, 936, 937
819, 1178, 1177, 921, 922, 1194, 1193, 937, 938
820, 1179, 1178, 922, 923, 1195, 1194, 938, 939
821, 1180, 1179, 923, 924, 1196, 1195, 939, 940
822, 1181, 1180, 924, 925, 1197, 1196, 940, 941
823, 1182, 1181, 925, 926, 1198, 1197, 941, 942
824, 1183, 1182, 926, 927, 1199, 1198, 942, 943
825, 1184, 1183, 927, 928, 1200, 1199, 943, 944
826, 1185, 1186, 930, 929, 1201, 1202, 946, 945
827, 1187, 1185, 929, 931, 1203, 1201, 945, 947
828, 1188, 1187, 931, 932, 1204, 1203, 947, 948
829, 1189, 1188, 932, 933, 1205, 1204, 948, 949
830, 1190, 1189, 933, 934, 1206, 1205, 949, 950
831, 1191, 1190, 934, 935, 1207, 1206, 950, 951
832, 1192, 1191, 935, 936, 1208, 1207, 951, 952
833, 1193, 1192, 936, 937, 1209, 1208, 952, 953
834, 1194, 1193, 937, 938, 1210, 1209, 953, 954
835, 1195, 1194, 938, 939, 1211, 1210, 954, 955
836, 1196, 1195, 939, 940, 1212, 1211, 955, 956
837, 1197, 1196, 940, 941, 1213, 1212, 956, 957
838, 1198, 1197, 941, 942, 1214, 1213, 957, 958
839, 1199, 1198, 942, 943, 1215, 1214, 958, 959
840, 1200, 1199, 943, 944, 1216, 1215, 959, 960
841, 1201, 1202, 946, 945, 1217, 1218, 962, 961
842, 1203, 1201, 945, 947, 1219, 1217, 961, 963
843, 1204, 1203, 947, 948, 1220, 1219, 963, 964
844, 1205, 1204, 948, 949, 1221, 1220, 964, 965
845, 1206, 1205, 949, 950, 1222, 1221, 965, 966
846, 1207, 1206, 950, 951, 1223, 1222, 966, 967
847, 1208, 1207, 951, 952, 1224, 1223, 967, 968
848, 1209, 1208, 952, 953, 1225, 1224, 968, 969
849, 1210, 1209, 953, 954, 1226, 1225, 969, 970
850, 1211, 1210, 954, 955, 1227, 1226, 970, 971
851, 1212, 1211, 955, 956, 1228, 1227, 971, 972
852, 1213, 1212, 956, 957, 1229, 1228, 972, 973
853, 1214, 1213, 957, 958, 1230, 1229, 973, 974
854, 1215, 1214, 958, 959, 1231, 1230, 974, 975
855, 1216, 1215, 959, 960, 1232, 1231, 975, 976
856, 1217, 1218, 962, 961, 1233, 1234, 978, 977
857, 1219, 1217, 961, 963, 1235, 1233, 977, 979
858, 1220, 1219, 963, 964, 1236, 1235, 979, 980
859, 1221, 1220, 964, 965, 1237, 1236, 980, 981
860, 1222, 1221, 965, 966, 1238, 1237, 981, 982
861, 1223, 1222, 966, 967, 1239, 1238, 982, 983
862, 1224, 1223, 967, 968, 1240, 1239, 983, 984
863, 1225, 1224, 968, 969, 1241, 1240, 984, 985
864, 1226, 1225, 969, 970, 1242, 1241, 985, 986
865, 1227, 1226, 970, 971, 1243, 1242, 986, 987
866, 1228, 1227, 971, 972, 1244, 1243, 987, 988
867, 1229, 1228, 972, 973, 1245, 1244, 988, 989
868, 1230, 1229, 973, 974, 1246, 1245, 989, 990
869, 1231, 1230, 974, 975, 1247, 1246, 990, 991
870, 1232, 1231, 975, 976, 1248, 1247, 991, 992
871, 1233, 1234, 978, 977, 1249, 1250, 994, 993
872, 1235, 1233, 977, 979, 1251, 1249, 993, 995
873, 1236, 1235, 979, 980, 1252, 1251, 995, 996
874, 1237, 1236, 980, 981, 1253, 1252, 996, 997
875, 1238, 1237, 981, 982, 1254, 1253, 997, 998
876, 1239, 1238, 982, 983, 1255, 1254, 998, 999
877, 1240, 1239, 983, 984, 1256, 1255, 999, 1000
878, 1241, 1240, 984, 985, 1257, 1256, 1000, 1001
879, 1242, 1241, 985, 986, 1258, 1257, 1001, 1002
880, 1243, 1242, 986, 987, 1259, 1258, 1002, 1003
881, 1244, 1243, 987, 988, 1260, 1259, 1003, 1004
882, 1245, 1244, 988, 989, 1261, 1260, 1004, 1005
883, 1246, 1245, 989, 990, 1262, 1261, 1005, 1006
884, 1247, 1246, 990, 991, 1263, 1262, 1006, 1007
885, 1248, 1247, 991, 992, 1264, 1263, 1007, 1008
886, 1249, 1250, 994, 993, 1265, 1266, 1010, 1009
887, 1251, 1249, 993, 995, 1267, 1265, 1009, 1011
888, 1252, 1251, 995, 996, 1268, 1267, 1011, 1012
889, 1253, 1252, 996, 997, 1269, 1268, 1012, 1013
890, 1254, 1253, 997, 998, 1270, 1269, 1013, 1014
891, 1255, 1254, 998, 999, 1271, 1270, 1014, 1015
892, 1256, 1255, 999, 1000, 1272, 1271, 1015, 1016
893, 1257, 1256, 1000, 1001, 1273, 1272, 1016, 1017
894, 1258, 1257, 1001, 1002, 1274, 1273, 1017, 1018
895, 1259, 1258, 1002, 1003, 1275, 1274, 1018, 1019
896, 1260, 1259, 1003, 1004, 1276, 1275, 1019, 1020
897, 1261, 1260, 1004, 1005, 1277, 1276, 1020, 1021
898, 1262, 1261, 1005, 1006, 1278, 1277, 1021, 1022
899, 1263, 1262, 1006, 1007, 1279, 1278, 1022, 1023
900, 1264, 1263, 1007, 1008, 1280, 1279, 1023, 1024
901, 1281, 1282, 1026, 1025, 1283, 1284, 1028, 1027
902, 1285, 1281, 1025, 1029, 1286, 1283, 1027, 1030
903, 1287, 1285, 1029, 1031, 1288, 1286, 1030, 1032
904, 1289, 1287, 1031, 1033, 1290, 1288, 1032, 1034
905, 1291, 1289, 1033, 1035, 1292, 1290, 1034, 1036
906, 1293, 1291, 1035, 1037, 1294, 1292, 1036, 1038
907, 1295, 1293, 1037, 1039, 1296, 1294, 1038, 1040
908, 1297, 1295, 1039, 1041, 1298, 1296, 1040, 1042
909, 1299, 1297, 1041, 1043, 1300, 1298, 1042, 1044
910, 1301, 1299, 1043, 1045, 1302, 1300, 1044, 1046
911, 1303, 1301, 1045, 1047, 1304, 1302, 1046, 1048
912, 1305, 1303, 1047, 1049, 1306, 1304, 1048, 1050
913, 1307, 1305, 1049, 1051, 1308, 1306, 1050, 1052
914, 1309, 1307, 1051, 1053, 1310, 1308, 1052, 1054
915, 1311, 1309, 1053, 1055, 1312, 1310, 1054, 1056
916, 1283, 1284, 1028, 1027, 1313, 1314, 1058, 1057
917, 1286, 1283, 1027, 1030, 1315, 1313, 1057, 1059
918, 1288, 1286, 1030, 1032, 1316, 1315, 1059, 1060
919, 1290, 1288, 1032, 1034, 1317, 1316, 1060, 1061
920, 1292, 1290, 1034, 1036, 1318, 1317, 1061, 1062
921, 1294, 1292, 1036, 1038, 1319, 1318, 1062, 1063
922, 1296, 1294, 1038, 1040, 1320, 1319, 1063, 1064
923, 1298, 1296, 1040, 1042, 1321, 1320, 1064, 1065
924, 1300, 1298, 1042, 1044, 1322, 1321, 1065, 1066
925, 1302, 1300, 1044, 1046, 1323, 1322, 1066, 1067
926, 1304, 1302, 1046, 1048, 1324, 1323, 1067, 1068
927, 1306, 1304, 1048, 1050, 1325, 1324, 1068, 1069
928, 1308, 1306, 1050, 1052, 1326, 1325, 1069, 1070
929, 1310, 1308, 1052, 1054, 1327, 1326, 1070, 1071
930, 1312, 1310, 1054, 1056, 1328, 1327, 1071, 1072
931, 1313, 1314, 1058, 1057, 1329, 1330, 1074, 1073
932, 1315, 1313, 1057, 1059, 1331, 1329, 1073, 1075
933, 1316, 1315, 1059, 1060, 1332, 1331, 1075, 1076
934, 1317, 1316, 1060, 1061, 1333, 1332, 1076, 1077
935, 1318, 1317, 1061, 1062, 1334, 1333, 1077, 1078
936, 1319, 1318, 1062, 1063, 1335, 1334, 1078, 1079
937, 1320, 1319, 1063, 1064, 1336, 1335, 1079, 1080
938, 1321, 1320, 1064, 1065, 1337, 1336, 1080, 1081
939, 1322, 1321, 1065, 1066, 1338, 1337, 1081, 1082
940, 1323, 1322, 1066, 1067, 1339, 1338, 1082, 1083
941, 1324, 1323, 1067, 1068, 1340, 1339, 1083, 1084
942, 1325, 1324, 1068, 1069, 1341, 1340, 1084, 1085
943, 1326, 1325, 1069, 1070, 1342, 1341, 1085, 1086
944, 1327, 1326, 1070, 1071, 1343, 1342, 1086, 1087
945, 1328, 1327, 1071, 1072, 1344, 1343, 1087, 1088
946, 1329, 1330, 1074, 1073, 1345, 1346, 1090, 1089
947, 1331, 1329, 1073, 1075, 1347, 1345, 1089, 1091
948, 1332, 1331, 1075, 1076, 1348, 1347, 1091, 1092
949, 1333, 1332, 1076, 1077, 1349, 1348, 1092, 1093
950, 1334, 1333, 1077, 1078, 1350, 1349, 1093, 1094
951, 1335, 1334, 1078, 1079, 1351, 1350, 1094, 1095
952, 1336, 1335, 1079, 1080, 1352, 1351, 1095, 1096
953, 1337, 1336, 1080, 1081, 1353, 1352, 1096, 1097
954, 1338, 1337, 1081, 1082, 1354, 1353, 1097, 1098
955, 1339, 1338, 1082, 1083, 1355, 1354, 1098, 1099
956, 1340, 1339, 1083, 1084, 1356, 1355, 1099, 1100
957, 1341, 1340, 1084, 1085, 1357, 1356, 1100, 1101
958, 1342, 1341, 1085, 1086, 1358, 1357, 1101, 1102
959, 1343, 1342, 1086, 1087, 1359, 1358, 1102, 1103
960, 1344, 1343, 1087, 1088, 1360, 1359, 1103, 1104
961, 1345, 1346, 1090, 1089, 1361, 1362, 1106, 1105
962, 1347, 1345, 1089, 1091, 1363, 1361, 1105, 1107
963, 1348, 1347, 1091, 1092, 1364, 1363, 1107, 1108
964, 1349, 1348, 1092, 1093, 1365, 1364, 1108, 1109
965, 1350, 1349, 1093, 1094, 1366, 1365, 1109, 1110
966, 1351, 1350, 1094, 1095, 1367, 1366, 1110, 1111
967, 1352, 1351, 1095, 1096, 1368, 1367, 1111, 1112
968, 1353, 1352, 1096, 1097, 1369, 1368, 1112, 1113
969, 1354, 1353, 1097, 1098, 1370, 1369, 1113, 1114
970, 1355, 1354, 1098, 1099, 1371, 1370, 1114, 1115
971, 1356, 1355, 1099, 1100, 1372, 1371, 1115, 1116
972, 1357, 1356, 1100, 1101, 1373, 1372, 1116, 1117
973, 1358, 1357, 1101, 1102, 1374, 1373, 1117, 1118
974, 1359, 1358, 1102, 1103, 1375, 1374, 1118, 1119
975, 1360, 1359, 1103, 1104, 1376, 1375, 1119, 1120
976, 1361, 1362, 1106, 1105, 1377, 1378, 1122, 1121
977, 1363, 1361, 1105, 1107, 1379, 1377, 1121, 1123
978, 1364, 1363, 1107, 1108, 1380, 1379, 1123, 1124
979, 1365, 1364, 1108, 1109, 1381, 1380, 1124, 1125
980, 1366, 1365, 1109, 1110, 1382, 1381, 1125, 1126
981, 1367, 1366, 1110, 1111, 1383, 1382, 1126, 1127
982, 1368, 1367, 1111, 1112, 1384, 1383, 1127, 1128
983, 1369, 1368, 1112, 1113, 1385, 1384, 1128, 1129
984, 1370, 1369, 1113, 1114, 1386, 1385, 1129, 1130
985, 1371, 1370, 1114, 1115, 1387, 1386, 1130, 1131
986, 1372, 1371, 1115, 1116, 1388, 1387, 1131, 1132
987, 1373, 1372, 1116, 1117, 1389, 1388, 1132, 1133
988, 1374, 1373, 1117, 1118, 1390, 1389, 1133, 1134
989, 1375, 1374, 1118, 1119, 1391, 1390, 1134, 1135
990, 1376, 1375, 1119, 1120, 1392, 1391, 1135, 1136
991, 1377, 1378, 1122, 1121, 1393, 1394, 1138, 1137
992, 1379, 1377, 1121, 1123, 1395, 1393, 1137, 1139
993, 1380, 1379, 1123, 1124, 1396, 1395, 1139, 1140
994, 1381, 1380, 1124, 1125, 1397, 1396, 1140, 1141
995, 1382, 1381, 1125, 1126, 1398, 1397, 1141, 1142
996, 1383, 1382, 1126, 1127, 1399, 1398, 1142, 1143
997, 1384, 1383, 1127, 1128, 1400, 1399, 1143, 1144
998, 1385, 1384, 1128, 1129, 1401, 1400, 1144, 1145
999, 1386, 1385, 1129, 1130, 1402, 1401, 1145, 1146
1000, 1387, 1386, 1130, 1131, 1403, 1402, 1146, 1147
1001, 1388, 1387, 1131, 1132, 1404, 1403, 1147, 1148
1002, 1389, 1388, 1132, 1133, 1405, 1404, 1148, 1149
1003, 1390, 1389, 1133, 1134, 1406, 1405, 1149, 1150
1004, 1391, 1390, 1134, 1135, 1407, 1406, 1150, 1151
1005, 1392, 1391, 1135, 1136, 1408, 1407, 1151, 1152
1006, 1393, 1394, 1138, 1137, 1409, 1410, 1154, 1153
1007, 1395, 1393, 1137, 1139, 1411, 1409, 1153, 1155
1008, 1396, 1395, 1139, 1140, 1412, 1411, 1155, 1156
1009, 1397, 1396, 1140, 1141, 1413, 1412, 1156, 1157
1010, 1398, 1397, 1141, 1142, 1414, 1413, 1157, 1158
1011, 1399, 1398, 1142, 1143, 1415, 1414, 1158, 1159
1012, 1400, 1399, 1143, 1144, 1416, 1415, 1159, 1160
1013, 1401, 1400, 1144, 1145, 1417, 1416, 1160, 1161
1014, 1402, 1401, 1145, 1146, 1418, 1417, 1161, 1162
1015, 1403, 1402, 1146, 1147, 1419, 1418, 1162, 1163
1016, 1404, 1403, 1147, 1148, 1420, 1419, 1163, 1164
1017, 1405, 1404, 1148, 1149, 1421, 1420, 1164, 1165
1018, 1406, 1405, 1149, 1150, 1422, 1421, 1165, 1166
1019, 1407, 1406, 1150, 1151, 1423, 1422, 1166, 1167
1020, 1408, 1407, 1151, 1152, 1424, 1423, 1167, 1168
1021, 1409, 1410, 1154, 1153, 1425, 1426, 1170, 1169
1022, 1411, 1409, 1153, 1155, 1427, 1425, 1169, 1171
1023, 1412, 1411, 1155, 1156, 1428, 1427, 1171, 1172
1024, 1413, 1412, 1156, 1157, 1429, 1428, 1172, 1173
1025, 1414, 1413, 1157, 1158, 1430, 1429, 1173, 1174
1026, 1415, 1414, 1158, 1159, 1431, 1430, 1174, 1175
1027, 1416, 1415, 1159, 1160, 1432, 1431, 1175, 1176
1028, 1417, 1416, 1160, 1161, 1433, 1432, 1176, 1177
1029, 1418, 1417, 1161, 1162, 1434, 1433, 1177, 1178
1030, 1419, 1418, 1162, 1163, 1435, 1434, 1178, 1179
1031, 1420, 1419, 1163, 1164, 1436, 1435, 1179, 1180
1032, 1421, 1420, 1164, 1165, 1437, 1436, 1180, 1181
1033, 1422, 1421, 1165, 1166, 1438, 1437, 1181, 1182
1034, 1423, 1422, 1166, 1167, 1439, 1438, 1182, 1183
1035, 1424, 1423, 1167, 1168, 1440, 1439, 1183, 1184
1036, 1425, 1426, 1170, 1169, 1441, 1442, 1186, 1185
1037, 1427, 1425, 1169, 1171, 1443, 1441, 1185, 1187
1038, 1428, 1427, 1171, 1172, 1444, 1443, 1187, 1188
1039, 1429, 1428, 1172, 1173, 1445, 1444, 1188, 1189
1040, 1430, 1429, 1173, 1174, 1446, 1445, 1189, 1190
1041, 1431, 1430, 1174, 1175, 1447, 1446, 1190, 1191
1042, 1432, 1431, 1175, 1176, 1448, 1447, 1191, 1192
1043, 1433, 1432, 1176, 1177, 1449, 1448, 1192, 1193
1044, 1434, 1433, 1177, 1178, 1450, 1449, 1193, 1194
1045, 1435, 1434, 1178, 1179, 1451, 1450, 1194, 1195
1046, 1436, 1435, 1179, 1180, 1452, 1451, 1195, 1196
1047, 1437, 1436, 1180, 1181, 1453, 1452, 1196, 1197
1048, 1438, 1437, 1181, 1182, 1454, 1453, 1197, 1198
1049, 1439, 1438, 1182, 1183, 1455, 1454, 1198, 1199
1050, 1440, 1439, 1183, 1184, 1456, 1455, 1199, 1200
1051, 1441, 1442, 1186, 1185, 1457, 1458, 1202, 1201
1052, 1443, 1441, 1185, 1187, 1459, 1457, 1201, 1203
1053, 1444, 1443, 1187, 1188, 1460, 1459, 1203, 1204
1054, 1445, 1444, 1188, 1189, 1461, 1460, 1204, 1205
1055, 1446, 1445, 1189, 1190, 1462, 1461, 1205, 1206
1056, 1447, 1446, 1190, 1191, 1463, 1462, 1206, 1207
1057, 1448, 1447, 1191, 1192, 1464, 1463, 1207, 1208
1058, 1449, 1448, 1192, 1193, 1465, 1464, 1208, 1209
1059, 1450, 1449, 1193, 1194, 1466, 1465, 1209, 1210
1060, 1451, 1450, 1194, 1195, 1467, 1466, 1210, 1211
1061, 1452, 1451, 1195, 1196, 1468, 1467, 1211, 1212
1062, 1453, 1452, 1196, 1197, 1469, 1468, 1212, 1213
1063, 1454, 1453, 1197, 1198, 1470, 1469, 1213, 1214
1064, 1455, 1454, 1198, 1199, 1471, 1470, 1214, 1215
1065, 1456, 1455, 1199, 1200, 1472, 1471, 1215, 1216
1066, 1457, 1458, 1202, 1201, 1473, 1474, 1218, 1217
1067, 1459, 1457, 1201, 1203, 1475, 1473, 1217, 1219
1068, 1460, 1459, 1203, 1204, 1476, 1475, 1219, 1220
1069, 1461, 1460, 1204, 1205, 1477, 1476, 1220, 1221
1070, 1462, 1461, 1205, 1206, 1478, 1477, 1221, 1222
1071, 1463, 1462, 1206, 1207, 1479, 1478, 1222, 1223
1072, 1464, 1463, 1207, 1208, 1480, 1479, 1223, 1224
1073, 1465, 1464, 1208, 1209, 1481, 1480, 1224, 1225
1074, 1466, 1465, 1209, 1210, 1482, 1481, 1225, 1226
1075, 1467, 1466, 1210, 1211, 1483, 1482, 1226, 1227
1076, 1468, 1467, 1211, 1212, 1484, 1483, 1227, 1228
1077, 1469, 1468, 1212, 1213, 1485, 1484, 1228, 1229
1078, 1470, 1469, 1213, 1214, 1486, 1485, 1229, 1230
1079, 1471, 1470, 1214, 1215, 1487, 1486, 1230, 1231
1080, 1472, 1471, 1215, 1216, 1488, 1487, 1231, 1232
1081, 1473, 1474, 1218, 1217, 1489, 1490, 1234, 1233
1082, 1475, 1473, 1217, 1219, 1491, 1489, 1233, 1235
1083, 1476, 1475, 1219, 1220, 1492, 1491, 1235, 1236
1084, 1477, 1476, 1220, 1221, 1493, 1492, 1236, 1237
1085, 1478, 1477, 1221, 1222, 1494, 1493, 1237, 1238
1086, 1479, 1478, 1222, 1223, 1495, 1494, 1238, 1239
1087, 1480, 1479, 1223, 1224, 1496, 1495, 1239, 1240
1088, 1481, 1480, 1224, 1225, 1497, 1496, 1240, 1241
1089, 1482, 1481, 1225, 1226, 1498, 1497, 1241, 1242
1090, 1483, 1482, 1226, 1227, 1499, 1498, 1242, 1243
1091, 1484, 1483, 1227, 1228, 1500, 1499, 1243, 1244
1092, 1485, 1484, 1228, 1229, 1501, 1500, 1244, 1245
1093, 1486, 1485, 1229, 1230, 1502, 1501, 1245, 1246
1094, 1487, 1486, 1230, 1231, 1503, 1502, 1246, 1247
1095, 1488, 1487, 1231, 1232, 1504, 1503, 1247, 1248
1096, 1489, 1490, 1234, 1233, 1505, 1506, 1250, 1249
1097, 1491, 1489, 1233, 1235, 1507, 1505, 1249, 1251
1098, 1492, 1491, 1235, 1236, 1508, 1507, 1251, 1252
1099, 1493, 1492, 1236, 1237, 1509, 1508, 1252, 1253
1100, 1494, 1493, 1237, 1238, 1510, 1509, 1253, 1254
1101, 1495, 1494, 1238, 1239, 1511, 1510, 1254, 1255
1102, 1496, 1495, 1239, 1240, 1512, 1511, 1255, 1256
1103, 1497, 1496, 1240, 1241, 1513, 1512, 1256, 1257
1104, 1498, 1497, 1241, 1242, 1514, 1513, 1257, 1258
1105, 1499, 1498, 1242, 1243, 1515, 1514, 1258, 1259
1106, 1500, 1499, 1243, 1244, 1516, 1515, 1259, 1260
1107, 1501, 1500, 1244, 1245, 1517, 1516, 1260, 1261
1108, 1502, 1501, 1245, 1246, 1518, 1517, 1261, 1262
1109, 1503, 1502, 1246, 1247, 1519, 1518, 1262, 1263
1110, 1504, 1503, 1247, 1248, 1520, 1519, 1263, 1264
1111, 1505, 1506, 1250, 1249, 1521, 1522, 1266, 1265
1112, 1507, 1505, 1249, 1251, 1523, 1521, 1265, 1267
1113, 1508, 1507, 1251, 1252, 1524, 1523, 1267, 1268
1114, 1509, 1508, 1252, 1253, 1525, 1524, 1268, 1269
1115, 1510, 1509, 1253, 1254, 1526, 1525, 1269, 1270
1116, 1511, 1510, 1254, 1255, 1527, 1526, 1270, 1271
1117, 1512, 1511, 1255, 1256, 1528, 1527, 1271, 1272
1118, 1513, 1512, 1256, 1257, 1529, 1528, 1272, 1273
1119, 1514, 1513, 1257, 1258, 1530, 1529, 1273, 1274
1120, 1515, 1514, 1258, 1259, 1531, 1530, 1274, 1275
1121, 1516, 1515, 1259, 1260, 1532, 1531, 1275, 1276
1122, 1517, 1516, 1260, 1261, 1533, 1532, 1276, 1277
1123, 1518, 1517, 1261, 1262, 1534, 1533, 1277, 1278
1124, 1519, 1518, 1262, 1263, 1535, 1534, 1278, 1279
1125, 1520, 1519, 1263, 1264, 1536, 1535, 1279, 1280
1126, 1537, 1538, 1282, 1281, 1539, 1540, 1284, 1283
1127, 1541, 1537, 1281, 1285, 1542, 1539, 1283, 1286
1128, 1543, 1541, 1285, 1287, 1544, 1542, 1286, 1288
1129, 1545, 1543, 1287, 1289, 1546, 1544, 1288, 1290
1130, 1547, 1545, 1289, 1291, 1548, 1546, 1290, 1292
1131, 1549, 1547, 1291, 1293, 1550, 1548, 1292, 1294
1132, 1551, 1549, 1293, 1295, 1552, 1550, 1294, 1296
1133, 1553, 1551, 1295, 1297, 1554, 1552, 1296, 1298
1134, 1555, 1553, 1297, 1299, 1556, 1554, 1298, 1300
1135, 1557, 1555, 1299, 1301, 1558, 1556, 1300, 1302
1136, 1559, 1557, 1301, 1303, 1560, 1558, 1302, 1304
1137, 1561, 1559, 1303, 1305, 1562, 1560, 1304, 1306
1138, 1563, 1561, 1305, 1307, 1564, 1562, 1306, 1308
1139, 1565, 1563, 1307, 1309, 1566, 1564, 1308, 1310
1140, 1567, 1565, 1309, 1311, 1568, 1566, 1310, 1312
1141, 1539, 1540, 1284, 1283, 1569, 1570, 1314, 1313
1142, 1542, 1539, 1283, 1286, 1571, 1569, 1313, 1315
1143, 1544, 1542, 1286, 1288, 1572, 1571, 1315, 1316
1144, 1546, 1544, 1288, 1290, 1573, 1572, 1316, 1317
1145, 1548, 1546, 1290, 1292, 1574, 1573, 1317, 1318
1146, 1550, 1548, 1292, 1294, 1575, 1574, 1318, 1319
1147, 1552, 1550, 1294, 1296, 1576, 1575, 1319, 1320
1148, 1554, 1552, 1296, 1298, 1577, 1576, 1320, 1321
1149, 1556, 1554, 1298, 1300, 1578, 1577, 1321, 1322
1150, 1558, 1556, 1300, 1302, 1579, 1578, 1322, 1323
1151, 1560, 1558, 1302, 1304, 1580, 1579, 1323, 1324
1152, 1562, 1560, 1304, 1306, 1581, 1580, 1324, 1325
1153, 1564, 1562, 1306, 1308, 1582, 1581, 1325, 1326
1154, 1566, 1564, 1308, 1310, 1583, 1582, 1326, 1327
1155, 1568, 1566, 1310, 1312, 1584, 1583, 1327, 1328
1156, 1569, 1570, 1314, 1313, 1585, 1586, 1330, 1329
1157, 1571, 1569, 1313, 1315, 1587, 1585, 1329, 1331
1158, 1572, 1571, 1315, 1316, 1588, 1587, 1331, 1332
1159, 1573, 1572, 1316, 1317, 1589, 1588, 1332, 1333
1160, 1574, 1573, 1317, 1318, 1590, 1589, 1333, 1334
1161, 1575, 1574, 1318, 1319, 1591, 1590, 1334, 1335
1162, 1576, 1575, 1319, 1320, 1592, 1591, 1335, 1336
1163, 1577, 1576, 1320, 1321, 1593, 1592, 1336, 1337
1164, 1578, 1577, 1321, 1322, 1594, 1593, 1337, 1338
1165, 1579, 1578, 1322, 1323, 1595, 1594, 1338, 1339
1166, 1580, 1579, 1323, 1324, 1596, 1595, 1339, 1340
1167, 1581, 1580, 1324, 1325, 1597, 1596, 1340, 1341
1168, 1582, 1581, 1325, 1326, 1598, 1597, 1341, 1342
1169, 1583, 1582, 1326, 1327, 1599, 1598, 1342, 1343
1170, 1584, 1583, 1327, 1328, 1600, 1599, 1343, 1344
1171, 1585, 1586, 1330, 1329, 1601, 1602, 1346, 1345
1172, 1587, 1585, 1329, 1331, 1603, 1601, 1345, 1347
1173, 1588, 1587, 1331, 1332, 1604, 1603, 1347, 1348
1174, 1589, 1588, 1332, 1333, 1605, 1604, 1348, 1349
1175, 1590, 1589, 1333, 1334, 1606, 1605, 1349, 1350
1176, 1591, 1590, 1334, 1335, 1607, 1606, 1350, 1351
1177, 1592, 1591, 1335, 1336, 1608, 1607, 1351, 1352
1178, 1593, 1592, 1336, 1337, 1609, 1608, 1352, 1353
1179, 1594, 1593, 1337, 1338, 1610, 1609, 1353, 1354
1180, 1595, 1594, 1338, 1339, 1611, 1610, 1354, 1355
1181, 1596, 1595, 1339, 1340, 1612, 1611, 1355, 1356
1182, 1597, 1596, 1340, 1341, 1613, 1612, 1356, 1357
1183, 1598, 1597, 1341, 1342, 1614, 1613, 1357, 1358
1184, 1599, 1598, 1342, 1343, 1615, 1614, 1358, 1359
1185, 1600, 1599, 1343, 1344, 1616, 1615, 1359, 1360
1186, 1601, 1602, 1346, 1345, 1617, 1618, 1362, 1361
1187, 1603, 1601, 1345, 1347, 1619, 1617, 1361, 1363
1188, 1604, 1603, 1347, 1348, 1620, 1619, 1363, 1364
1189, 1605, 1604, 1348, 1349, 1621, 1620, 1364, 1365
1190, 1606, 1605, 1349, 1350, 1622, 1621, 1365, 1366
1191, 1607, 1606, 1350, 1351, 1623, 1622, 1366, 1367
1192, 1608, 1607, 1351, 1352, 1624, 1623, 1367, 1368
1193, 1609, 1608, 1352, 1353, 1625, 1624, 1368, 1369
1194, 1610, 1609, 1353, 1354, 1626, 1625, 1369, 1370
1195, 1611, 1610, 1354, 1355, 1627, 1626, 1370, 1371
1196, 1612, 1611, 1355, 1356, 1628, 1627, 1371, 1372
1197, 1613, 1612, 1356, 1357, 1629, 1628, 1372, 1373
1198, 1614, 1613, 1357, 1358, 1630, 1629, 1373, 1374
1199, 1615, 1614, 1358, 1359, 1631, 1630, 1374, 1375
1200, 1616, 1615, 1359, 1360, 1632, 1631, 1375, 1376
1201, 1617, 1618, 1362, 1361, 1633, 1634, 1378, 1377
1202, 1619, 1617, 1361, 1363, 1635, 1633, 1377, 1379
1203, 1620, 1619, 1363, 1364, 1636, 1635, 1379, 1380
1204, 1621, 1620, 1364, 1365, 1637, 1636, 1380, 1381
1205, 1622, 1621, 1365, 1366, 1638, 1637, 1381, 1382
1206, 1623, 1622, 1366, 1367, 1639, 1638, 1382, 1383
1207, 1624, 1623, 1367, 1368, 1640, 1639, 1383, 1384
1208, 1625, 1624, 1368, 1369, 1641, 1640, 1384, 1385
1209, 1626, 1625, 1369, 1370, 1642, 1641, 1385, 1386
1210, 1627, 1626, 1370, 1371, 1643, 1642, 1386, 1387
1211, 1628, 1627, 1371, 1372, 1644, 1643, 1387, 1388
1212, 1629, 1628, 1372, 1373, 1645, 1644, 1388, 1389
1213, 1630, 1629, 1373, 1374, 1646, 1645, 1389, 1390
1214, 1631, 1630, 1374, 1375, 1647, 1646, 1390, 1391
1215, 1632, 1631, 1375, 1376, 1648, 1647, 1391, 1392
1216, 1633, 1634, 1378, 1377, 1649, 1650, 1394, 1393
1217, 1635, 1633, 1377, 1379, 1651, 1649, 1393, 1395
1218, 1636, 1635, 1379, 1380, 1652, 1651, 1395, 1396
1219, 1637, 1636, 1380, 1381, 1653, 1652, 1396, 1397
1220, 1638, 1637, 1381, 1382, 1654, 1653, 1397, 1398
1221, 1639, 1638, 1382, 1383, 1655, 1654, 1398, 1399
1222, 1640, 1639, 1383, 1384, 1656, 1655, 1399, 1400
1223, 1641, 1640, 1384, 1385, 1657, 1656, 1400, 1401
1224, 1642, 1641, 1385, 1386, 1658, 1657, 1401, 1402
1225, 1643, 1642, 1386, 1387, 1659, 1658, 1402, 1403
1226, 1644, 1643, 1387, 1388, 1660, 1659, 1403, 1404
1227, 1645, 1644, 1388, 1389, 1661, 1660, 1404, 1405
1228, 1646, 1645, 1389, 1390, 1662, 1661, 1405, 1406
1229, 1647, 1646, 1390, 1391, 1663, 1662, 1406, 1407
1230, 1648, 1647, 1391, 1392, 1664, 1663, 1407, 1408
1231, 1649, 1650, 1394, 1393, 1665, 1666, 1410, 1409
1232, 1651, 1649, 1393, 1395, 1667, 1665, 1409, 1411
1233, 1652, 1651, 1395, 1396, 1668, 1667, 1411, 1412
1234, 1653, 1652, 1396, 1397, 1669, 1668, 1412, 1413
1235, 1654, 1653, 1397, 1398, 1670, 1669, 1413, 1414
1236, 1655, 1654, 1398, 1399, 1671, 1670, 1414, 1415
1237, 1656, 1655, 1399, 1400, 1672, 1671, 1415, 1416
1238, 1657, 1656, 1400, 1401, 1673, 1672, 1416, 1417
1239, 1658, 1657, 1401, 1402, 1674, 1673, 1417, 1418
1240, 1659, 1658, 1402, 1403, 1675, 1674, 1418, 1419
1241, 1660, 1659, 1403, 1404, 1676, 1675, 1419, 1420
1242, 1661, 1660, 1404, 1405, 1677, 1676, 1420, 1421
1243, 1662, 1661, 1405, 1406, 1678, 1677, 1421, 1422
1244, 1663, 1662, 1406, 1407, 1679, 1678, 1422, 1423
1245, 1664, 1663, 1407, 1408, 1680, 1679, 1423, 1424
1246, 1665, 1666, 1410, 1409, 1681, 1682, 1426, 1425
1247, 1667, 1665, 1409, 1411, 1683, 1681, 1425, 1427
1248, 1668, 1667, 1411, 1412, 1684, 1683, 1427, 1428
1249, 1669, 1668, 1412, 1413, 1685, 1684, 1428, 1429
1250, 1670, 1669, 1413, 1414, 1686, 1685, 1429, 1430
1251, 1671, 1670, 1414, 1415, 1687, 1686, 1430, 1431
1252, 1672, 1671, 1415, 1416, 1688, 1687, 1431, 1432
1253, 1673, 1672, 1416, 1417, 1689, 1688, 1432, 1433
1254, 1674, 1673, 1417, 1418, 1690, 1689, 1433, 1434
1255, 1675, 1674, 1418, 1419, 1691, 1690, 1434, 1435
1256, 1676, 1675, 1419, 1420, 1692, 1691, 1435, 1436
1257, 1677, 1676, 1420, 1421, 1693, 1692, 1436, 1437
1258, 1678, 1677, 1421, 1422, 1694, 1693, 1437, 1438
1259, 1679, 1678, 1422, 1423, 1695, 1694, 1438, 1439
1260, 1680, 1679, 1423, 1424, 1696, 1695, 1439, 1440
1261, 1681, 1682, 1426, 1425, 1697, 1698, 1442, 1441
1262, 1683, 1681, 1425, 1427, 1699, 1697, 1441, 1443
1263, 1684, 1683, 1427, 1428, 1700, 1699, 1443, 1444
1264, 1685, 1684, 1428, 1429, 1701, 1700, 1444, 1445
1265, 1686, 1685, 1429, 1430, 1702, 1701, 1445, 1446
1266, 1687, 1686, 1430, 1431, 1703, 1702, 1446, 1447
1267, 1688, 1687, 1431, 1432, 1704, 1703, 1447, 1448
1268, 1689, 1688, 1432, 1433, 1705, 1704, 1448, 1449
1269, 1690, 1689, 1433, 1434, 1706, 1705, 1449, 1450
1270, 1691, 1690, 1434, 1435, 1707, 1706, 1450, 1451
1271, 1692, 1691, 1435, 1436, 1708, 1707, 1451, 1452
1272, 1693, 1692, 1436, 1437, 1709, 1708, 1452, 1453
1273, 1694, 1693, 1437, 1438, 1710, 1709, 1453, 1454
1274, 1695, 1694, 1438, 1439, 1711, 1710, 1454, 1455
1275, 1696, 1695, 1439, 1440, 1712, 1711, 1455, 1456
1276, 1697, 1698, 1442, 1441, 1713, 1714, 1458, 1457
1277, 1699, 1697, 1441, 1443, 1715, 1713, 1457, 1459
1278, 1700, 1699, 1443, 1444, 1716, 1715, 1459, 1460
1279, 1701, 1700, 1444, 1445, 1717, 1716, 1460, 1461
1280, 1702, 1701, 1445, 1446, 1718, 1717, 1461, 1462
1281, 1703, 1702, 1446, 1447, 1719, 1718, 1462, 1463
1282, 1704, 1703, 1447, 1448, 1720, 1719, 1463, 1464
1283, 1705, 1704, 1448, 1449, 1721, 1720, 1464, 1465
1284, 1706, 1705, 1449, 1450, 1722, 1721, 1465, 1466
1285, 1707, 1706, 1450, 1451, 1723, 1722, 1466, 1467
1286, 1708, 1707, 1451, 1452, 1724, 1723, 1467, 1468
1287, 1709, 1708, 1452, 1453, 1725, 1724, 1468, 1469
1288, 1710, 1709, 1453, 1454, 1726, 1725, 1469, 1470
1289, 1711, 1710, 1454, 1455, 1727, 1726, 1470, 1471
1290, 1712, 1711, 1455, 1456, 1728, 1727, 1471, 1472
1291, 1713, 1714, 1458, 1457, 1729, 1730, 1474, 1473
1292, 1715, 1713, 1457, 1459, 1731, 1729, 1473, 1475
1293, 1716, 1715, 1459, 1460, 1732, 1731, 1475, 1476
1294, 1717, 1716, 1460, 1461, 1733, 1732, 1476, 1477
1295, 1718, 1717, 1461, 1462, 1734, 1733, 1477, 1478
1296, 1719, 1718, 1462, 1463, 1735, 1734, 1478, 1479
1297, 1720, 1719, 1463, 1464, 1736, 1735, 1479, 1480
1298, 1721, 1720, 1464, 1465, 1737, 1736, 1480, 1481
1299, 1722, 1721, 1465, 1466, 1738, 1737, 1481, 1482
1300, 1723, 1722, 1466, 1467, 1739, 1738, 1482, 1483
1301, 1724, 1723, 1467, 1468, 1740, 1739, 1483, 1484
1302, 1725, 1724, 1468, 1469, 1741, 1740, 1484, 1485
1303, 1726, 1725, 1469, 1470, 1742, 1741, 1485, 1486
1304, 1727, 1726, 1470, 1471, 1743, 1742, 1486, 1487
1305, 1728, 1727, 1471, 1472, 1744, 1743, 1487, 1488
1306, 1729, 1730, 1474, 1473, 1745, 1746, 1490, 1489
1307, 1731, 1729, 1473, 1475, 1747, 1745, 1489, 1491
1308, 1732, 1731, 1475, 1476, 1748, 1747, 1491, 1492
1309, 1733, 1732, 1476, 1477, 1749, 1748, 1492, 1493
1310, 1734, 1733, 1477, 1478, 1750, 1749, 1493, 1494
1311, 1735, 1734, 1478, 1479, 1751, 1750, 1494, 1495
1312, 1736, 1735, 1479, 1480, 1752, 1751, 1495, 1496
1313, 1737, 1736, 1480, 1481, 1753, 1752, 1496, 1497
1314, 1738, 1737, 1481, 1482, 1754, 1753, 1497, 1498
1315, 1739, 1738, 1482, 1483, 1755, 1754, 1498, 1499
1316, 1740, 1739, 1483, 1484, 1756, 1755, 1499, 1500
1317, 1741, 1740, 1484, 1485, 1757, 1756, 1500, 1501
1318, 1742, 1741, 1485, 1486, 1758, 1757, 1501, 1502
1319, 1743, 1742, 1486, 1487, 1759, 1758, 1502, 1503
1320, 1744, 1743, 1487, 1488, 1760, 1759, 1503, 1504
1321, 1745, 1746, 1490, 1489, 1761, 1762, 1506, 1505
1322, 1747, 1745, 1489, 1491, 1763, 1761, 1505, 1507
1323, 1748, 1747, 1491, 1492, 1764, 1763, 1507, 1508
1324, 1749, 1748, 1492, 1493, 1765, 1764, 1508, 1509
1325, 1750, 1749, 1493, 1494, 1766, 1765, 1509, 1510
1326, 1751, 1750, 1494, 1495, 1767, 1766, 1510, 1511
1327, 1752, 1751, 1495, 1496, 1768, 1767, 1511, 1512
1328, 1753, 1752, 1496, 1497, 1769, 1768, 1512, 1513
1329, 1754, 1753, 1497, 1498, 1770, 1769, 1513, 1514
1330, 1755, 1754, 1498, 1499, 1771, 1770, 1514, 1515
1331, 1756, 1755, 1499, 1500, 1772, 1771, 1515, 1516
1332, 1757, 1756, 1500, 1501, 1773, 1772, 1516, 1517
1333, 1758, 1757, 1501, 1502, 1774, 1773, 1517, 1518
1334, 1759, 1758, 1502, 1503, 1775, 1774, 1518, 1519
1335, 1760, 1759, 1503, 1504, 1776, 1775, 1519, 1520
1336, 1761, 1762, 1506, 1505, 1777, 1778, 1522, 1521
1337, 1763, 1761, 1505, 1507, 1779, 1777, 1521, 1523
1338, 1764, 1763, 1507, 1508, 1780, 1779, 1523, 1524
1339, 1765, 1764, 1508, 1509, 1781, 1780, 1524, 1525
1340, 1766, 1765, 1509, 1510, 1782, 1781, 1525, 1526
1341, 1767, 1766, 1510, 1511, 1783, 1782, 1526, 1527
1342, 1768, 1767, 1511, 1512, 1784, 1783, 1527, 1528
1343, 1769, 1768, 1512, 1513, 1785, 1784, 1528, 1529
1344, 1770, 1769, 1513, 1514, 1786, 1785, 1529, 1530
1345, 1771, 1770, 1514, 1515, 1787, 1786, 1530, 1531
1346, 1772, 1771, 1515, 1516, 1788, 1787, 1531, 1532
1347, 1773, 1772, 1516, 1517, 1789, 1788, 1532, 1533
1348, 1774, 1773, 1517, 1518, 1790, 1789, 1533, 1534
1349, 1775, 1774, 1518, 1519, 1791, 1790, 1534, 1535
1350, 1776, 1775, 1519, 1520, 1792, 1791, 1535, 1536
1351, 1793, 1794, 1538, 1537, 1795, 1796, 1540, 1539
1352, 1797, 1793, 1537, 1541, 1798, 1795, 1539, 1542
1353, 1799, 1797, 1541, 1543, 1800, 1798, 1542, 1544
1354, 1801, 1799, 1543, 1545, 1802, 1800, 1544, 1546
1355, 1803, 1801, 1545, 1547, 1804, 1802, 1546, 1548
1356, 1805, 1803, 1547, 1549, 1806, 1804, 1548, 1550
1357, 1807, 1805, 1549, 1551, 1808, 1806, 1550, 1552
1358, 1809, 1807, 1551, 1553, 1810, 1808, 1552, 1554
1359, 1811, 1809, 1553, 1555, 1812, 1810, 1554, 1556
1360, 1813, 1811, 1555, 1557, 1814, 1812, 1556, 1558
1361, 1815, 1813, 1557, 1559, 1816, 1814, 1558, 1560
1362, 1817, 1815, 1559, 1561, 1818, 1816, 1560, 1562
1363, 1819, 1817, 1561, 1563, 1820, 1818, 1562, 1564
1364, 1821, 1819, 1563, 1565, 1822, 1820, 1564, 1566
1365, 1823, 1821, 1565, 1567, 1824, 1822, 1566, 1568
1366, 1795, 1796, 1540, 1539, 1825, 1826, 1570, 1569
1367, 1798, 1795, 1539, 1542, 1827, 1825, 1569, 1571
1368, 1800, 1798, 1542, 1544, 1828, 1827, 1571, 1572
1369, 1802, 1800, 1544, 1546, 1829, 1828, 1572, 1573
1370, 1804, 1802, 1546, 1548, 1830, 1829, 1573, 1574
1371, 1806, 1804, 1548, 1550, 1831, 1830, 1574, 1575
1372, 1808, 1806, 1550, 1552, 1832, 1831, 1575, 1576
1373, 1810, 1808, 1552, 1554, 1833, 1832, 1576, 1577
1374, 1812, 1810, 1554, 1556, 1834, 1833, 1577, 1578
1375, 1814, 1812, 1556, 1558, 1835, 1834, 1578, 1579
1376, 1816, 1814, 1558, 1560, 1836, 1835, 1579, 1580
1377, 1818, 1816, 1560, 1562, 1837, 1836, 1580, 1581
1378, 1820, 1818, 1562, 1564, 1838, 1837, 1581, 1582
1379, 1822, 1820, 1564, 1566, 1839, 1838, 1582, 1583
1380, 1824, 1822, 1566, 1568, 1840, 1839, 1583, 1584
1381, 1825, 1826, 1570, 1569, 1841, 1842, 1586, 1585
1382, 1827, 1825, 1569, 1571, 1843, 1841, 1585, 1587
1383, 1828, 1827, 1571, 1572, 1844, 1843, 1587, 1588
1384, 1829, 1828, 1572, 1573, 1845, 1844, 1588, 1589
1385, 1830, 1829, 1573, 1574, 1846, 1845, 1589, 1590
1386, 1831, 1830, 1574, 1575, 1847, 1846, 1590, 1591
1387, 1832, 1831, 1575, 1576, 1848, 1847, 1591, 1592
1388, 1833, 1832, 1576, 1577, 1849, 1848, 1592, 1593
1389, 1834, 1833, 1577, 1578, 1850, 1849, 1593, 1594
1390, 1835, 1834, 1578, 1579, 1851, 1850, 1594, 1595
1391, 1836, 1835, 1579, 1580, 1852, 1851, 1595, 1596
1392, 1837, 1836, 1580, 1581, 1853, 1852, 1596, 1597
1393, 1838, 1837, 1581, 1582, 1854, 1853, 1597, 1598
1394, 1839, 1838, 1582, 1583, 1855, 1854, 1598, 1599
1395, 1840, 1839, 1583, 1584, 1856, 1855, 1599, 1600
1396, 1841, 1842, 1586, 1585, 1857, 1858, 1602, 1601
1397, 1843, 1841, 1585, 1587, 1859, 1857, 1601, 1603
1398, 1844, 1843, 1587, 1588, 1860, 1859, 1603, 1604
1399, 1845, 1844, 1588, 1589, 1861, 1860, 1604, 1605
1400, 1846, 1845, 1589, 1590, 1862, 1861, 1605, 1606
1401, 1847, 1846, 1590, 1591, 1863, 1862, 1606, 1607
1402, 1848, 1847, 1591, 1592, 1864, 1863, 1607, 1608
1403, 1849, 1848, 1592, 1593, 1865, 1864, 1608, 1609
1404, 1850, 1849, 1593, 1594, 1866, 1865, 1609, 1610
1405, 1851, 1850, 1594, 1595, 1867, 1866, 1610, 1611
1406, 1852, 1851, 1595, 1596, 1868, 1867, 1611, 1612
1407, 1853, 1852, 1596, 1597, 1869, 1868, 1612, 1613
1408, 1854, 1853, 1597, 1598, 1870, 1869, 1613, 1614
1409, 1855, 1854, 1598, 1599, 1871, 1870, 1614, 1615
1410, 1856, 1855, 1599, 1600, 1872, 1871, 1615, 1616
1411, 1857, 1858, 1602, 1601, 1873, 1874, 1618, 1617
1412, 1859, 1857, 1601, 1603, 1875, 1873, 1617, 1619
1413, 1860, 1859, 1603, 1604, 1876, 1875, 1619, 1620
1414, 1861, 1860, 1604, 1605, 1877, 1876, 1620, 1621
1415, 1862, 1861, 1605, 1606, 1878, 1877, 1621, 1622
1416, 1863, 1862, 1606, 1607, 1879, 1878, 1622, 1623
1417, 1864, 1863, 1607, 1608, 1880, 1879, 1623, 1624
1418, 1865, 1864, 1608, 1609, 1881, 1880, 1624, 1625
1419, 1866, 1865, 1609, 1610, 1882, 1881, 1625, 1626
1420, 1867, 1866, 1610, 1611, 1883, 1882, 1626, 1627
1421, 1868, 1867, 1611, 1612, 1884, 1883, 1627, 1628
1422, 1869, 1868, 1612, 1613, 1885, 1884, 1628, 1629
1423, 1870, 1869, 1613, 1614, 1886, 1885, 1629, 1630
1424, 1871, 1870, 1614, 1615, 1887, 1886, 1630, 1631
1425, 1872, 1871, 1615, 1616, 1888, 1887, 1631, 1632
1426, 1873, 1874, 1618, 1617, 1889, 1890, 1634, 1633
1427, 1875, 1873, 1617, 1619, 1891, 1889, 1633, 1635
1428, 1876, 1875, 1619, 1620, 1892, 1891, 1635, 1636
1429, 1877, 1876, 1620, 1621, 1893, 1892, 1636, 1637
1430, 1878, 1877, 1621, 1622, 1894, 1893, 1637, 1638
1431, 1879, 1878, 1622, 1623, 1895, 1894, 1638, 1639
1432, 1880, 1879, 1623, 1624, 1896, 1895, 1639, 1640
1433, 1881, 1880, 1624, 1625, 1897, 1896, 1640, 1641
1434, 1882, 1881, 1625, 1626, 1898, 1897, 1641, 1642
1435, 1883, 1882, 1626, 1627, 1899, 1898, 1642, 1643
1436, 1884, 1883, 1627, 1628, 1900, 1899, 1643, 1644
1437, 1885, 1884, 1628, 1629, 1901, 1900, 1644, 1645
1438, 1886, 1885, 1629, 1630, 1902, 1901, 1645, 1646
1439, 1887, 1886, 1630, 1631, 1903, 1902, 1646, 1647
1440, 1888, 1887, 1631, 1632, 1904, 1903, 1647, 1648
1441, 1889, 1890, 1634, 1633, 1905, 1906, 1650, 1649
1442, 1891, 1889, 1633, 1635, 1907, 1905, 1649, 1651
1443, 1892, 1891, 1635, 1636, 1908, 1907, 1651, 1652
1444, 1893, 1892, 1636, 1637, 1909, 1908, 1652, 1653
1445, 1894, 1893, 1637, 1638, 1910, 1909, 1653, 1654
1446, 1895, 1894, 1638, 1639, 1911, 1910, 1654, 1655
1447, 1896, 1895, 1639, 1640, 1912, 1911, 1655, 1656
1448, 1897, 1896, 1640, 1641, 1913, 1912, 1656, 1657
1449, 1898, 1897, 1641, 1642, 1914, 1913, 1657, 1658
1450, 1899, 1898, 1642, 1643, 1915, 1914, 1658, 1659
1451, 1900, 1899, 1643, 1644, 1916, 1915, 1659, 1660
1452, 1901, 1900, 1644, 1645, 1917, 1916, 1660, 1661
1453, 1902, 1901, 1645, 1646, 1918, 1917, 1661, 1662
1454, 1903, 1902, 1646, 1647, 1919, 1918, 1662, 1663
1455, 1904, 1903, 1647, 1648, 1920, 1919, 1663, 1664
1456, 1905, 1906, 1650, 1649, 1921, 1922, 1666, 1665
1457, 1907, 1905, 1649, 1651, 1923, 1921, 1665, 1667
1458, 1908, 1907, 1651, 1652, 1924, 1923, 1667, 1668
1459, 1909, 1908, 1652, 1653, 1925, 1924, 1668, 1669
1460, 1910, 1909, 1653, 1654, 1926, 1925, 1669, 1670
1461, 1911, 1910, 1654, 1655, 1927, 1926, 1670, 1671
1462, 1912, 1911, 1655, 1656, 1928, 1927, 1671, 1672
1463, 1913, 1912, 1656, 1657, 1929, 1928, 1672, 1673
1464, 1914, 1913, 1657, 1658, 1930, 1929, 1673, 1674
1465, 1915, 1914, 1658, 1659, 1931, 1930, 1674, 1675
1466, 1916, 1915, 1659, 1660, 1932, 1931, 1675, 1676
1467, 1917, 1916, 1660, 1661, 1933, 1932, 1676, 1677
1468, 1918, 1917, 1661, 1662, 1934, 1933, 1677, 1678
1469, 1919, 1918, 1662, 1663, 1935, 1934, 1678, 1679
1470, 1920, 1919, 1663, 1664, 1936, 1935, 1679, 1680
1471, 1921, 1922, 1666, 1665, 1937, 1938, 1682, 1681
1472, 1923, 1921, 1665, 1667, 1939, 1937, 1681, 1683
1473, 1924, 1923, 1667, 1668, 1940, 1939, 1683, 1684
1474, 1925, 1924, 1668, 1669, 1941, 1940, 1684, 1685
1475, 1926, 1925, 1669, 1670, 1942, 1941, 1685, 1686
1476, 1927, 1926, 1670, 1671, 1943, 1942, 1686, 1687
1477, 1928, 1927, 1671, 1672, 1944, 1943, 1687, 1688
1478, 1929, 1928, 1672, 1673, 1945, 1944, 1688, 1689
1479, 1930, 1929, 1673, 1674, 1946, 1945, 1689, 1690
1480, 1931, 1930, 1674, 1675, 1947, 1946, 1690, 1691
1481, 1932, 1931, 1675, 1676, 1948, 1947, 1691, 1692
1482, 1933, 1932, 1676, 1677, 1949, 1948, 1692, 1693
1483, 1934, 1933, 1677, 1678, 1950, 1949, 1693, 1694
1484, 1935, 1934, 1678, 1679, 1951, 1950, 1694, 1695
1485, 1936, 1935, 1679, 1680, 1952, 1951, 1695, 1696
1486, 1937, 1938, 1682, 1681, 1953, 1954, 1698, 1697
1487, 1939, 1937, 1681, 1683, 1955, 1953, 1697, 1699
1488, 1940, 1939, 1683, 1684, 1956, 1955, 1699, 1700
1489, 1941, 1940, 1684, 1685, 1957, 1956, 1700, 1701
1490, 1942, 1941, 1685, 1686, 1958, 1957, 1701, 1702
1491, 1943, 1942, 1686, 1687, 1959, 1958, 1702, 1703
1492, 1944, 1943, 1687, 1688, 1960, 1959, 1703, 1704
1493, 1945, 1944, 1688, 1689, 1961, 1960, 1704, 1705
1494, 1946, 1945, 1689, 1690, 1962, 1961, 1705, 1706
1495, 1947, 1946, 1690, 1691, 1963, 1962, 1706, 1707
1496, 1948, 1947, 1691, 1692, 1964, 1963, 1707, 1708
1497, 1949, 1948, 1692, 1693, 1965, 1964, 1708, 1709
1498, 1950, 1949, 1693, 1694, 1966, 1965, 1709, 1710
1499, 1951, 1950, 1694, 1695, 1967, 1966, 1710, 1711
1500, 1952, 1951, 1695, 1696, 1968, 1967, 1711, 1712
1501, 1953, 1954, 1698, 1697, 1969, 1970, 1714, 1713
1502, 1955, 1953, 1697, 1699, 1971, 1969, 1713, 1715
1503, 1956, 1955, 1699, 1700, 1972, 1971, 1715, 1716
1504, 1957, 1956, 1700, 1701, 1973, 1972, 1716, 1717
1505, 1958, 1957, 1701, 1702, 1974, 1973, 1717, 1718
1506, 1959, 1958, 1702, 1703, 1975, 1974, 1718, 1719
1507, 1960, 1959, 1703, 1704, 1976, 1975, 1719, 1720
1508, 1961, 1960, 1704, 1705, 1977, 1976, 1720, 1721
1509, 1962, 1961, 1705, 1706, 1978, 1977, 1721, 1722
1510, 1963, 1962, 1706, 1707, 1979, 1978, 1722, 1723
1511, 1964, 1963, 1707, 1708, 1980, 1979, 1723, 1724
1512, 1965, 1964, 1708, 1709, 1981, 1980, 1724, 1725
1513, 1966, 1965, 1709, 1710, 1982, 1981, 1725, 1726
1514, 1967, 1966, 1710, 1711, 1983, 1982, 1726, 1727
1515, 1968, 1967, 1711, 1712, 1984, 1983, 1727, 1728
1516, 1969, 1970, 1714, 1713, 1985, 1986, 1730, 1729
1517, 1971, 1969, 1713, 1715, 1987, 1985, 1729, 1731
1518, 1972, 1971, 1715, 1716, 1988, 1987, 1731, 1732
1519, 1973, 1972, 1716, 1717, 1989, 1988, 1732, 1733
1520, 1974, 1973, 1717, 1718, 1990, 1989, 1733, 1734
1521, 1975, 1974, 1718, 1719, 1991, 1990, 1734, 1735
1522, 1976, 1975, 1719, 1720, 1992, 1991, 1735, 1736
1523, 1977, 1976, 1720, 1721, 1993, 1992, 1736, 1737
1524, 1978, 1977, 1721, 1722, 1994, 1993, 1737, 1738
1525, 1979, 1978, 1722, 1723, 1995, 1994, 1738, 1739
1526, 1980, 1979, 1723, 1724, 1996, 1995, 1739, 1740
1527, 1981, 1980, 1724, 1725, 1997, 1996, 1740, 1741
1528, 1982, 1981, 1725, 1726, 1998, 1997, 1741, 1742
1529, 1983, 1982, 1726, 1727, 1999, 1998, 1742, 1743
1530, 1984, 1983, 1727, 1728, 2000, 1999, 1743, 1744
1531, 1985, 1986, 1730, 1729, 2001, 2002, 1746, 1745
1532, 1987, 1985, 1729, 1731, 2003, 2001, 1745, 1747
1533, 1988, 1987, 1731, 1732, 2004, 2003, 1747, 1748
1534, 1989, 1988, 1732, 1733, 2005, 2004, 1748, 1749
1535, 1990, 1989, 1733, 1734, 2006, 2005, 1749, 1750
1536, 1991, 1990, 1734, 1735, 2007, 2006, 1750, 1751
1537, 1992, 1991, 1735, 1736, 2008, 2007, 1751, 1752
1538, 1993, 1992, 1736, 1737, 2009, 2008, 1752, 1753
1539, 1994, 1993, 1737, 1738, 2010, 2009, 1753, 1754
1540, 1995, 1994, 1738, 1739, 2011, 2010, 1754, 1755
1541, 1996, 1995, 1739, 1740, 2012, 2011, 1755, 1756
1542, 1997, 1996, 1740, 1741, 2013, 2012, 1756, 1757
1543, 1998, 1997, 1741, 1742, 2014, 2013, 1757, 1758
1544, 1999, 1998, 1742, 1743, 2015, 2014, 1758, 1759
1545, 2000, 1999, 1743, 1744, 2016, 2015, 1759, 1760
1546, 2001, 2002, 1746, 1745, 2017, 2018, 1762, 1761
1547, 2003, 2001, 1745, 1747, 2019, 2017, 1761, 1763
1548, 2004, 2003, 1747, 1748, 2020, 2019, 1763, 1764
1549, 2005, 2004, 1748, 1749, 2021, 2020, 1764, 1765
1550, 2006, 2005, 1749, 1750, 2022, 2021, 1765, 1766
1551, 2007, 2006, 1750, 1751, 2023, 2022, 1766, 1767
1552, 2008, 2007, 1751, 1752, 2024, 2023, 1767, 1768
1553, 2009, 2008, 1752, 1753, 2025, 2024, 1768, 1769
1554, 2010, 2009, 1753, 1754, 2026, 2025, 1769, 1770
1555, 2011, 2010, 1754, 1755, 2027, 2026, 1770, 1771
1556, 2012, 2011, 1755, 1756, 2028, 2027, 1771, 1772
1557, 2013, 2012, 1756, 1757, 2029, 2028, 1772, 1773
1558, 2014, 2013, 1757, 1758, 2030, 2029, 1773, 1774
1559, 2015, 2014, 1758, 1759, 2031, 2030, 1774, 1775
1560, 2016, 2015, 1759, 1760, 2032, 2031, 1775, 1776
1561, 2017, 2018, 1762, 1761, 2033, 2034, 1778, 1777
1562, 2019, 2017, 1761, 1763, 2035, 2033, 1777, 1779
1563, 2020, 2019, 1763, 1764, 2036, 2035, 1779, 1780
1564, 2021, 2020, 1764, 1765, 2037, 2036, 1780, 1781
1565, 2022, 2021, 1765, 1766, 2038, 2037, 1781, 1782
1566, 2023, 2022, 1766, 1767, 2039, 2038, 1782, 1783
1567, 2024, 2023, 1767, 1768, 2040, 2039, 1783, 1784
1568, 2025, 2024, 1768, 1769, 2041, 2040, 1784, 1785
1569, 2026, 2025, 1769, 1770, 2042, 2041, 1785, 1786
1570, 2027, 2026, 1770, 1771, 2043, 2042, 1786, 1787
1571, 2028, 2027, 1771, 1772, 2044, 2043, 1787, 1788
1572, 2029, 2028, 1772, 1773, 2045, 2044, 1788, 1789
1573, 2030, 2029, 1773, 1774, 2046, 2045, 1789, 1790
1574, 2031, 2030, 1774, 1775, 2047, 2046, 1790, 1791
1575, 2032, 2031, 1775, 1776, 2048, 2047, 1791, 1792
1576, 2049, 2050, 1794, 1793, 2051, 2052, 1796, 1795
1577, 2053, 2049, 1793, 1797, 2054, 2051, 1795, 1798
1578, 2055, 2053, 1797, 1799, 2056, 2054, 1798, 1800
1579, 2057, 2055, 1799, 1801, 2058, 2056, 1800, 1802
1580, 2059, 2057, 1801, 1803, 2060, 2058, 1802, 1804
1581, 2061, 2059, 1803, 1805, 2062, 2060, 1804, 1806
1582, 2063, 2061, 1805, 1807, 2064, 2062, 1806, 1808
1583, 2065, 2063, 1807, 1809, 2066, 2064, 1808, 1810
1584, 2067, 2065, 1809, 1811, 2068, 2066, 1810, 1812
1585, 2069, 2067, 1811, 1813, 2070, 2068, 1812, 1814
1586, 2071, 2069, 1813, 1815, 2072, 2070, 1814, 1816
1587, 2073, 2071, 1815, 1817, 2074, 2072, 1816, 1818
1588, 2075, 2073, 1817, 1819, 2076, 2074, 1818, 1820
1589, 2077, 2075, 1819, 1821, 2078, 2076, 1820, 1822
1590, 2079, 2077, 1821, 1823, 2080, 2078, 1822, 1824
1591, 2051, 2052, 1796, 1795, 2081, 2082, 1826, 1825
1592, 2054, 2051, 1795, 1798, 2083, 2081, 1825, 1827
1593, 2056, 2054, 1798, 1800, 2084, 2083, 1827, 1828
1594, 2058, 2056, 1800, 1802, 2085, 2084, 1828, 1829
1595, 2060, 2058, 1802, 1804, 2086, 2085, 1829, 1830
1596, 2062, 2060, 1804, 1806, 2087, 2086, 1830, 1831
1597, 2064, 2062, 1806, 1808, 2088, 2087, 1831, 1832
1598, 2066, 2064, 1808, 1810, 2089, 2088, 1832, 1833
1599, 2068, 2066, 1810, 1812, 2090, 2089, 1833, 1834
1600, 2070, 2068, 1812, 1814, 2091, 2090, 1834, 1835
1601, 2072, 2070, 1814, 1816, 2092, 2091, 1835, 1836
1602, 2074, 2072, 1816, 1818, 2093, 2092, 1836, 1837
1603, 2076, 2074, 1818, 1820, 2094, 2093, 1837, 1838
1604, 2078, 2076, 1820, 1822, 2095, 2094, 1838, 1839
1605, 2080, 2078, 1822, 1824, 2096, 2095, 1839, 1840
1606, 2081, 2082, 1826, 1825, 2097, 2098, 1842, 1841
1607, 2083, 2081, 1825, 1827, 2099, 2097, 1841, 1843
1608, 2084, 2083, 1827, 1828, 2100, 2099, 1843, 1844
1609, 2085, 2084, 1828, 1829, 2101, 2100, 1844, 1845
1610, 2086, 2085, 1829, 1830, 2102, 2101, 1845, 1846
1611, 2087, 2086, 1830, 1831, 2103, 2102, 1846, 1847
1612, 2088, 2087, 1831, 1832, 2104, 2103, 1847, 1848
1613, 2089, 2088, 1832, 1833, 2105, 2104, 1848, 1849
1614, 2090, 2089, 1833, 1834, 2106, 2105, 1849, 1850
1615, 2091, 2090, 1834, 1835, 2107, 2106, 1850, 1851
1616, 2092, 2091, 1835, 1836, 2108, 2107, 1851, 1852
1617, 2093, 2092, 1836, 1837, 2109, 2108, 1852, 1853
1618, 2094, 2093, 1837, 1838, 2110, 2109, 1853, 1854
1619, 2095, 2094, 1838, 1839, 2111, 2110, 1854, 1855
1620, 2096, 2095, 1839, 1840, 2112, 2111, 1855, 1856
1621, 2097, 2098, 1842, 1841, 2113, 2114, 1858, 1857
1622, 2099, 2097, 1841, 1843, 2115, 2113, 1857, 1859
1623, 2100, 2099, 1843, 1844, 2116, 2115, 1859, 1860
1624, 2101, 2100, 1844, 1845, 2117, 2116, 1860, 1861
1625, 2102, 2101, 1845, 1846, 2118, 2117, 1861, 1862
1626, 2103, 2102, 1846, 1847, 2119, 2118, 1862, 1863
1627, 2104, 2103, 1847, 1848, 2120, 2119, 1863, 1864
1628, 2105, 2104, 1848, 1849, 2121, 2120, 1864, 1865
1629, 2106, 2105, 1849, 1850, 2122, 2121, 1865, 1866
1630, 2107, 2106, 1850, 1851, 2123, 2122, 1866, 1867
1631, 2108, 2107, 1851, 1852, 2124, 2123, 1867, 1868
1632, 2109, 2108, 1852, 1853, 2125, 2124, 1868, 1869
1633, 2110, 2109, 1853, 1854, 2126, 2125, 1869, 1870
1634, 2111, 2110, 1854, 1855, 2127, 2126, 1870, 1871
1635, 2112, 2111, 1855, 1856, 2128, 2127, 1871, 1872
1636, 2113, 2114, 1858, 1857, 2129, 2130, 1874, 1873
1637, 2115, 2113, 1857, 1859, 2131, 2129, 1873, 1875
1638, 2116, 2115, 1859, 1860, 2132, 2131, 1875, 1876
1639, 2117, 2116, 1860, 1861, 2133, 2132, 1876, 1877
1640, 2118, 2117, 1861, 1862, 2134, 2133, 1877, 1878
1641, 2119, 2118, 1862, 1863, 2135, 2134, 1878, 1879
1642, 2120, 2119, 1863, 1864, 2136, 2135, 1879, 1880
1643, 2121, 2120, 1864, 1865, 2137, 2136, 1880, 1881
1644, 2122, 2121, 1865, 1866, 2138, 2137, 1881, 1882
1645, 2123, 2122, 1866, 1867, 2139, 2138, 1882, 1883
1646, 2124, 2123, 1867, 1868, 2140, 2139, 1883, 1884
1647, 2125, 2124, 1868, 1869, 2141, 2140, 1884, 1885
1648, 2126, 2125, 1869, 1870, 2142, 2141, 1885, 1886
1649, 2127, 2126, 1870, 1871, 2143, 2142, 1886, 1887
1650, 2128, 2127, 1871, 1872, 2144, 2143, 1887, 1888
1651, 2129, 2130, 1874, 1873, 2145, 2146, 1890, 1889
1652, 2131, 2129, 1873, 1875, 2147, 2145, 1889, 1891
1653, 2132, 2131, 1875, 1876, 2148, 2147, 1891, 1892
1654, 2133, 2132, 1876, 1877, 2149, 2148, 1892, 1893
1655, 2134, 2133, 1877, 1878, 2150, 2149, 1893, 1894
1656, 2135, 2134, 1878, 1879, 2151, 2150, 1894, 1895
1657, 2136, 2135, 1879, 1880, 2152, 2151, 1895, 1896
1658, 2137, 2136, 1880, 1881, 2153, 2152, 1896, 1897
1659, 2138, 2137, 1881, 1882, 2154, 2153, 1897, 1898
1660, 2139, 2138, 1882, 1883, 2155, 2154, 1898, 1899
1661, 2140, 2139, 1883, 1884, 2156, 2155, 1899, 1900
1662, 2141, 2140, 1884, 1885, 2157, 2156, 1900, 1901
1663, 2142, 2141, 1885, 1886, 2158, 2157, 1901, 1902
1664, 2143, 2142, 1886, 1887, 2159, 2158, 1902, 1903
1665, 2144, 2143, 1887, 1888, 2160, 2159, 1903, 1904
1666, 2145, 2146, 1890, 1889, 2161, 2162, 1906, 1905
1667, 2147, 2145, 1889, 1891, 2163, 2161, 1905, 1907
1668, 2148, 2147, 1891, 1892, 2164, 2163, 1907, 1908
1669, 2149, 2148, 1892, 1893, 2165, 2164, 1908, 1909
1670, 2150, 2149, 1893, 1894, 2166, 2165, 1909, 1910
1671, 2151, 2150, 1894, 1895, 2167, 2166, 1910, 1911
1672, 2152, 2151, 1895, 1896, 2168, 2167, 1911, 1912
1673, 2153, 2152, 1896, 1897, 2169, 2168, 1912, 1913
1674, 2154, 2153, 1897, 1898, 2170, 2169, 1913, 1914
1675, 2155, 2154, 1898, 1899, 2171, 2170, 1914, 1915
1676, 2156, 2155, 1899, 1900, 2172, 2171, 1915, 1916
1677, 2157, 2156, 1900, 1901, 2173, 2172, 1916, 1917
1678, 2158, 2157, 1901, 1902, 2174, 2173, 1917, 1918
1679, 2159, 2158, 1902, 1903, 2175, 2174, 1918, 1919
1680, 2160, 2159, 1903, 1904, 2176, 2175, 1919, 1920
1681, 2161, 2162, 1906, 1905, 2177, 2178, 1922, 1921
1682, 2163, 2161, 1905, 1907, 2179, 2177, 1921, 1923
1683, 2164, 2163, 1907, 1908, 2180, 2179, 1923, 1924
1684, 2165, 2164, 1908, 1909, 2181, 2180, 1924, 1925
1685, 2166, 2165, 1909, 1910, 2182, 2181, 1925, 1926
1686, 2167, 2166, 1910, 1911, 2183, 2182, 1926, 1927
1687, 2168, 2167, 1911, 1912, 2184, 2183, 1927, 1928
1688, 2169, 2168, 1912, 1913, 2185, 2184, 1928, 1929
1689, 2170, 2169, 1913, 1914, 2186, 2185, 1929, 1930
1690, 2171, 2170, 1914, 1915, 2187, 2186, 1930, 1931
1691, 2172, 2171, 1915, 1916, 2188, 2187, 1931, 1932
1692, 2173, 2172, 1916, 1917, 2189, 2188, 1932, 1933
1693, 2174, 2173, 1917, 1918, 2190, 2189, 1933, 1934
1694, 2175, 2174, 1918, 1919, 2191, 2190, 1934, 1935
1695, 2176, 2175, 1919, 1920, 2192, 2191, 1935, 1936
1696, 2177, 2178, 1922, 1921, 2193, 2194, 1938, 1937
1697, 2179, 2177, 1921, 1923, 2195, 2193, 1937, 1939
1698, 2180, 2179, 1923, 1924, 2196, 2195, 1939, 1940
1699, 2181, 2180, 1924, 1925, 2197, 2196, 1940, 1941
1700, 2182, 2181, 1925, 1926, 2198, 2197, 1941, 1942
1701, 2183, 2182, 1926, 1927, 2199, 2198, 1942, 1943
1702, 2184, 2183, 1927, 1928, 2200, 2199, 1943, 1944
1703, 2185, 2184, 1928, 1929, 2201, 2200, 1944, 1945
1704, 2186, 2185, 1929, 1930, 2202, 2201, 1945, 1946
1705, 2187, 2186, 1930, 1931, 2203, 2202, 1946, 1947
1706, 2188, 2187, 1931, 1932, 2204, 2203, 1947, 1948
1707, 2189, 2188, 1932, 1933, 2205, 2204, 1948, 1949
1708, 2190, 2189, 1933, 1934, 2206, 2205, 1949, 1950
1709, 2191, 2190, 1934, 1935, 2207, 2206, 1950, 1951
1710, 2192, 2191, 1935, 1936, 2208, 2207, 1951, 1952
1711, 2193, 2194, 1938, 1937, 2209, 2210, 1954, 1953
1712, 2195, 2193, 1937, 1939, 2211, 2209, 1953, 1955
1713, 2196, 2195, 1939, 1940, 2212, 2211, 1955, 1956
1714, 2197, 2196, 1940, 1941, 2213, 2212, 1956, 1957
1715, 2198, 2197, 1941, 1942, 2214, 2213, 1957, 1958
1716, 2199, 2198, 1942, 1943, 2215, 2214, 1958, 1959
1717, 2200, 2199, 1943, 1944, 2216, 2215, 1959, 1960
1718, 2201, 2200, 1944, 1945, 2217, 2216, 1960, 1961
1719, 2202, 2201, 1945, 1946, 2218, 2217, 1961, 1962
1720, 2203, 2202, 1946, 1947, 2219, 2218, 1962, 1963
1721, 2204, 2203, 1947, 1948, 2220, 2219, 1963, 1964
1722, 2205, 2204, 1948, 1949, 2221, 2220, 1964, 1965
1723, 2206, 2205, 1949, 1950, 2222, 2221, 1965, 1966
1724, 2207, 2206, 1950, 1951, 2223, 2222, 1966, 1967
1725, 2208, 2207, 1951, 1952, 2224, 2223, 1967, 1968
1726, 2209, 2210, 1954, 1953, 2225, 2226, 1970, 1969
1727, 2211, 2209, 1953, 1955, 2227, 2225, 1969, 1971
1728, 2212, 2211, 1955, 1956, 2228, 2227, 1971, 1972
1729, 2213, 2212, 1956, 1957, 2229, 2228, 1972, 1973
1730, 2214, 2213, 1957, 1958, 2230, 2229, 1973, 1974
1731, 2215, 2214, 1958, 1959, 2231, 2230, 1974, 1975
1732, 2216, 2215, 1959, 1960, 2232, 2231, 1975, 1976
1733, 2217, 2216, 1960, 1961, 2233, 2232, 1976, 1977
1734, 2218, 2217, 1961, 1962, 2234, 2233, 1977, 1978
1735, 2219, 2218, 1962, 1963, 2235, 2234, 1978, 1979
1736, 2220, 2219, 1963, 1964, 2236, 2235, 1979, 1980
1737, 2221, 2220, 1964, 1965, 2237, 2236, 1980, 1981
1738, 2222, 2221, 1965, 1966, 2238, 2237, 1981, 1982
1739, 2223, 2222, 1966, 1967, 2239, 2238, 1982, 1983
1740, 2224, 2223, 1967, 1968, 2240, 2239, 1983, 1984
1741, 2225, 2226, 1970, 1969, 2241, 2242, 1986, 1985
1742, 2227, 2225, 1969, 1971, 2243, 2241, 1985, 1987
1743, 2228, 2227, 1971, 1972, 2244, 2243, 1987, 1988
1744, 2229, 2228, 1972, 1973, 2245, 2244, 1988, 1989
1745, 2230, 2229, 1973, 1974, 2246, 2245, 1989, 1990
1746, 2231, 2230, 1974, 1975, 2247, 2246, 1990, 1991
1747, 2232, 2231, 1975, 1976, 2248, 2247, 1991, 1992
1748, 2233, 2232, 1976, 1977, 2249, 2248, 1992, 1993
1749, 2234, 2233, 1977, 1978, 2250, 2249, 1993, 1994
1750, 2235, 2234, 1978, 1979, 2251, 2250, 1994, 1995
1751, 2236, 2235, 1979, 1980, 2252, 2251, 1995, 1996
1752, 2237, 2236, 1980, 1981, 2253, 2252, 1996, 1997
1753, 2238, 2237, 1981, 1982, 2254, 2253, 1997, 1998
1754, 2239, 2238, 1982, 1983, 2255, 2254, 1998, 1999
1755, 2240, 2239, 1983, 1984, 2256, 2255, 1999, 2000
1756, 2241, 2242, 1986, 1985, 2257, 2258, 2002, 2001
1757, 2243, 2241, 1985, 1987, 2259, 2257, 2001, 2003
1758, 2244, 2243, 1987, 1988, 2260, 2259, 2003, 2004
1759, 2245, 2244, 1988, 1989, 2261, 2260, 2004, 2005
1760, 2246, 2245, 1989, 1990, 2262, 2261, 2005, 2006
1761, 2247, 2246, 1990, 1991, 2263, 2262, 2006, 2007
1762, 2248, 2247, 1991, 1992, 2264, 2263, 2007, 2008
1763, 2249, 2248, 1992, 1993, 2265, 2264, 2008, 2009
1764, 2250, 2249, 1993, 1994, 2266, 2265, 2009, 2010
1765, 2251, 2250, 1994, 1995, 2267, 2266, 2010, 2011
1766, 2252, 2251, 1995, 1996, 2268, 2267, 2011, 2012
1767, 2253, 2252, 1996, 1997, 2269, 2268, 2012, 2013
1768, 2254, 2253, 1997, 1998, 2270, 2269, 2013, 2014
1769, 2255, 2254, 1998, 1999, 2271, 2270, 2014, 2015
1770, 2256, 2255, 1999, 2000, 2272, 2271, 2015, 2016
1771, 2257, 2258, 2002, 2001, 2273, 2274, 2018, 2017
1772, 2259, 2257, 2001, 2003, 2275, 2273, 2017, 2019
1773, 2260, 2259, 2003, 2004, 2276, 2275, 2019, 2020
1774, 2261, 2260, 2004, 2005, 2277, 2276, 2020, 2021
1775, 2262, 2261, 2005, 2006, 2278, 2277, 2021, 2022
1776, 2263, 2262, 2006, 2007, 2279, 2278, 2022, 2023
1777, 2264, 2263, 2007, 2008, 2280, 2279, 2023, 2024
1778, 2265, 2264, 2008, 2009, 2281, 2280, 2024, 2025
1779, 2266, 2265, 2009, 2010, 2282, 2281, 2025, 2026
1780, 2267, 2266, 2010, 2011, 2283, 2282, 2026, 2027
1781, 2268, 2267, 2011, 2012, 2284, 2283, 2027, 2028
1782, 2269, 2268, 2012, 2013, 2285, 2284, 2028, 2029
1783, 2270, 2269, 2013, 2014, 2286, 2285, 2029, 2030
1784, 2271, 2270, 2014, 2015, 2287, 2286, 2030, 2031
1785, 2272, 2271, 2015, 2016, 2288, 2287, 2031, 2032
1786, 2273, 2274, 2018, 2017, 2289, 2290, 2034, 2033
1787, 2275, 2273, 2017, 2019, 2291, 2289, 2033, 2035
1788, 2276, 2275, 2019, 2020, 2292, 2291, 2035, 2036
1789, 2277, 2276, 2020, 2021, 2293, 2292, 2036, 2037
1790, 2278, 2277, 2021, 2022, 2294, 2293, 2037, 2038
1791, 2279, 2278, 2022, 2023, 2295, 2294, 2038, 2039
1792, 2280, 2279, 2023, 2024, 2296, 2295, 2039, 2040
1793, 2281, 2280, 2024, 2025, 2297, 2296, 2040, 2041
1794, 2282, 2281, 2025, 2026, 2298, 2297, 2041, 2042
1795, 2283, 2282, 2026, 2027, 2299, 2298, 2042, 2043
1796, 2284, 2283, 2027, 2028, 2300, 2299, 2043, 2044
1797, 2285, 2284, 2028, 2029, 2301, 2300, 2044, 2045
1798, 2286, 2285, 2029, 2030, 2302, 2301, 2045, 2046
1799, 2287, 2286, 2030, 2031, 2303, 2302, 2046, 2047
1800, 2288, 2287, 2031, 2032, 2304, 2303, 2047, 2048
1801, 2305, 2306, 2050, 2049, 2307, 2308, 2052, 2051
1802, 2309, 2305, 2049, 2053, 2310, 2307, 2051, 2054
1803, 2311, 2309, 2053, 2055, 2312, 2310, 2054, 2056
1804, 2313, 2311, 2055, 2057, 2314, 2312, 2056, 2058
1805, 2315, 2313, 2057, 2059, 2316, 2314, 2058, 2060
1806, 2317, 2315, 2059, 2061, 2318, 2316, 2060, 2062
1807, 2319, 2317, 2061, 2063, 2320, 2318, 2062, 2064
1808, 2321, 2319, 2063, 2065, 2322, 2320, 2064, 2066
1809, 2323, 2321, 2065, 2067, 2324, 2322, 2066, 2068
1810, 2325, 2323, 2067, 2069, 2326, 2324, 2068, 2070
1811, 2327, 2325, 2069, 2071, 2328, 2326, 2070, 2072
1812, 2329, 2327, 2071, 2073, 2330, 2328, 2072, 2074
1813, 2331, 2329, 2073, 2075, 2332, 2330, 2074, 2076
1814, 2333, 2331, 2075, 2077, 2334, 2332, 2076, 2078
1815, 2335, 2333, 2077, 2079, 2336, 2334, 2078, 2080
1816, 2307, 2308, 2052, 2051, 2337, 2338, 2082, 2081
1817, 2310, 2307, 2051, 2054, 2339, 2337, 2081, 2083
1818, 2312, 2310, 2054, 2056, 2340, 2339, 2083, 2084
1819, 2314, 2312, 2056, 2058, 2341, 2340, 2084, 2085
1820, 2316, 2314, 2058, 2060, 2342, 2341, 2085, 2086
1821, 2318, 2316, 2060, 2062, 2343, 2342, 2086, 2087
1822, 2320, 2318, 2062, 2064, 2344, 2343, 2087, 2088
1823, 2322, 2320, 2064, 2066, 2345, 2344, 2088, 2089
1824, 2324, 2322, 2066, 2068, 2346, 2345, 2089, 2090
1825, 2326, 2324, 2068, 2070, 2347, 2346, 2090, 2091
1826, 2328, 2326, 2070, 2072, 2348, 2347, 2091, 2092
1827, 2330, 2328, 2072, 2074, 2349, 2348, 2092, 2093
1828, 2332, 2330, 2074, 2076, 2350, 2349, 2093, 2094
1829, 2334, 2332, 2076, 2078, 2351, 2350, 2094, 2095
1830, 2336, 2334, 2078, 2080, 2352, 2351, 2095, 2096
1831, 2337, 2338, 2082, 2081, 2353, 2354, 2098, 2097
1832, 2339, 2337, 2081, 2083, 2355, 2353, 2097, 2099
1833, 2340, 2339, 2083, 2084, 2356, 2355, 2099, 2100
1834, 2341, 2340, 2084, 2085, 2357, 2356, 2100, 2101
1835, 2342, 2341, 2085, 2086, 2358, 2357, 2101, 2102
1836, 2343, 2342, 2086, 2087, 2359, 2358, 2102, 2103
1837, 2344, 2343, 2087, 2088, 2360, 2359, 2103, 2104
1838, 2345, 2344, 2088, 2089, 2361, 2360, 2104, 2105
1839, 2346, 2345, 2089, 2090, 2362, 2361, 2105, 2106
1840, 2347, 2346, 2090, 2091, 2363, 2362, 2106, 2107
1841, 2348, 2347, 2091, 2092, 2364, 2363, 2107, 2108
1842, 2349, 2348, 2092, 2093, 2365, 2364, 2108, 2109
1843, 2350, 2349, 2093, 2094, 2366, 2365, 2109, 2110
1844, 2351, 2350, 2094, 2095, 2367, 2366, 2110, 2111
1845, 2352, 2351, 2095, 2096, 2368, 2367, 2111, 2112
1846, 2353, 2354, 2098, 2097, 2369, 2370, 2114, 2113
1847, 2355, 2353, 2097, 2099, 2371, 2369, 2113, 2115
1848, 2356, 2355, 2099, 2100, 2372, 2371, 2115, 2116
1849, 2357, 2356, 2100, 2101, 2373, 2372, 2116, 2117
1850, 2358, 2357, 2101, 2102, 2374, 2373, 2117, 2118
1851, 2359, 2358, 2102, 2103, 2375, 2374, 2118, 2119
1852, 2360, 2359, 2103, 2104, 2376, 2375, 2119, 2120
1853, 2361, 2360, 2104, 2105, 2377, 2376, 2120, 2121
1854, 2362, 2361, 2105, 2106, 2378, 2377, 2121, 2122
1855, 2363, 2362, 2106, 2107, 2379, 2378, 2122, 2123
1856, 2364, 2363, 2107, 2108, 2380, 2379, 2123, 2124
1857, 2365, 2364, 2108, 2109, 2381, 2380, 2124, 2125
1858, 2366, 2365, 2109, 2110, 2382, 2381, 2125, 2126
1859, 2367, 2366, 2110, 2111, 2383, 2382, 2126, 2127
1860, 2368, 2367, 2111, 2112, 2384, 2383, 2127, 2128
1861, 2369, 2370, 2114, 2113, 2385, 2386, 2130, 2129
1862, 2371, 2369, 2113, 2115, 2387, 2385, 2129, 2131
1863, 2372, 2371, 2115, 2116, 2388, 2387, 2131, 2132
1864, 2373, 2372, 2116, 2117, 2389, 2388, 2132, 2133
1865, 2374, 2373, 2117, 2118, 2390, 2389, 2133, 2134
1866, 2375, 2374, 2118, 2119, 2391, 2390, 2134, 2135
1867, 2376, 2375, 2119, 2120, 2392, 2391, 2135, 2136
1868, 2377, 2376, 2120, 2121, 2393, 2392, 2136, 2137
1869, 2378, 2377, 2121, 2122, 2394, 2393, 2137, 2138
1870, 2379, 2378, 2122, 2123, 2395, 2394, 2138, 2139
1871, 2380, 2379, 2123, 2124, 2396, 2395, 2139, 2140
1872, 2381, 2380, 2124, 2125, 2397, 2396, 2140, 2141
1873, 2382, 2381, 2125, 2126, 2398, 2397, 2141, 2142
1874, 2383, 2382, 2126, 2127, 2399, 2398, 2142, 2143
1875, 2384, 2383, 2127, 2128, 2400, 2399, 2143, 2144
1876, 2385, 2386, 2130, 2129, 2401, 2402, 2146, 2145
1877, 2387, 2385, 2129, 2131, 2403, 2401, 2145, 2147
1878, 2388, 2387, 2131, 2132, 2404, 2403, 2147, 2148
1879, 2389, 2388, 2132, 2133, 2405, 2404, 2148, 2149
1880, 2390, 2389, 2133, 2134, 2406, 2405, 2149, 2150
1881, 2391, 2390, 2134, 2135, 2407, 2406, 2150, 2151
1882, 2392, 2391, 2135, 2136, 2408, 2407, 2151, 2152
1883, 2393, 2392, 2136, 2137, 2409, 2408, 2152, 2153
1884, 2394, 2393, 2137, 2138, 2410, 2409, 2153, 2154
1885, 2395, 2394, 2138, 2139, 2411, 2410, 2154, 2155
1886, 2396, 2395, 2139, 2140, 2412, 2411, 2155, 2156
1887, 2397, 2396, 2140, 2141, 2413, 2412, 2156, 2157
1888, 2398, 2397, 2141, 2142, 2414, 2413, 2157, 2158
1889, 2399, 2398, 2142, 2143, 2415, 2414, 2158, 2159
1890, 2400, 2399, 2143, 2144, 2416, 2415, 2159, 2160
1891, 2401, 2402, 2146, 2145, 2417, 2418, 2162, 2161
1892, 2403, 2401, 2145, 2147, 2419, 2417, 2161, 2163
1893, 2404, 2403, 2147, 2148, 2420, 2419, 2163, 2164
1894, 2405, 2404, 2148, 2149, 2421, 2420, 2164, 2165
1895, 2406, 2405, 2149, 2150, 2422, 2421, 2165, 2166
1896, 2407, 2406, 2150, 2151, 2423, 2422, 2166, 2167
1897, 2408, 2407, 2151, 2152, 2424, 2423, 2167, 2168
1898, 2409, 2408, 2152, 2153, 2425, 2424, 2168, 2169
1899, 2410, 2409, 2153, 2154, 2426, 2425, 2169, 2170
1900, 2411, 2410, 2154, 2155, 2427, 2426, 2170, 2171
1901, 2412, 2411, 2155, 2156, 2428, 2427, 2171, 2172
1902, 2413, 2412, 2156, 2157, 2429, 2428, 2172, 2173
1903, 2414, 2413, 2157, 2158, 2430, 2429, 2173, 2174
1904, 2415, 2414, 2158, 2159, 2431, 2430, 2174, 2175
1905, 2416, 2415, 2159, 2160, 2432, 2431, 2175, 2176
1906, 2417, 2418, 2162, 2161, 2433, 2434, 2178, 2177
1907, 2419, 2417, 2161, 2163, 2435, 2433, 2177, 2179
1908, 2420, 2419, 2163, 2164, 2436, 2435, 2179, 2180
1909, 2421, 2420, 2164, 2165, 2437, 2436, 2180, 2181
1910, 2422, 2421, 2165, 2166, 2438, 2437, 2181, 2182
1911, 2423, 2422, 2166, 2167, 2439, 2438, 2182, 2183
1912, 2424, 2423, 2167, 2168, 2440, 2439, 2183, 2184
1913, 2425, 2424, 2168, 2169, 2441, 2440, 2184, 2185
1914, 2426, 2425, 2169, 2170, 2442, 2441, 2185, 2186
1915, 2427, 2426, 2170, 2171, 2443, 2442, 2186, 2187
1916, 2428, 2427, 2171, 2172, 2444, 2443, 2187, 2188
1917, 2429, 2428, 2172, 2173, 2445, 2444, 2188, 2189
1918, 2430, 2429, 2173, 2174, 2446, 2445, 2189, 2190
1919, 2431, 2430, 2174, 2175, 2447, 2446, 2190, 2191
1920, 2432, 2431, 2175, 2176, 2448, 2447, 2191, 2192
1921, 2433, 2434, 2178, 2177, 2449, 2450, 2194, 2193
1922, 2435, 2433, 2177, 2179, 2451, 2449, 2193, 2195
1923, 2436, 2435, 2179, 2180, 2452, 2451, 2195, 2196
1924, 2437, 2436, 2180, 2181, 2453, 2452, 2196, 2197
1925, 2438, 2437, 2181, 2182, 2454, 2453, 2197, 2198
1926, 2439, 2438, 2182, 2183, 2455, 2454, 2198, 2199
1927, 2440, 2439, 2183, 2184, 2456, 2455, 2199, 2200
1928, 2441, 2440, 2184, 2185, 2457, 2456, 2200, 2201
1929, 2442, 2441, 2185, 2186, 2458, 2457, 2201, 2202
1930, 2443, 2442, 2186, 2187, 2459, 2458, 2202, 2203
1931, 2444, 2443, 2187, 2188, 2460, 2459, 2203, 2204
1932, 2445, 2444, 2188, 2189, 2461, 2460, 2204, 2205
1933, 2446, 2445, 2189, 2190, 2462, 2461, 2205, 2206
1934, 2447, 2446, 2190, 2191, 2463, 2462, 2206, 2207
1935, 2448, 2447, 2191, 2192, 2464, 2463, 2207, 2208
1936, 2449, 2450, 2194, 2193, 2465, 2466, 2210, 2209
1937, 2451, 2449, 2193, 2195, 2467, 2465, 2209, 2211
1938, 2452, 2451, 2195, 2196, 2468, 2467, 2211, 2212
1939, 2453, 2452, 2196, 2197, 2469, 2468, 2212, 2213
1940, 2454, 2453, 2197, 2198, 2470, 2469, 2213, 2214
1941, 2455, 2454, 2198, 2199, 2471, 2470, 2214, 2215
1942, 2456, 2455, 2199, 2200, 2472, 2471, 2215, 2216
1943, 2457, 2456, 2200, 2201, 2473, 2472, 2216, 2217
1944, 2458, 2457, 2201, 2202, 2474, 2473, 2217, 2218
1945, 2459, 2458, 2202, 2203, 2475, 2474, 2218, 2219
1946, 2460, 2459, 2203, 2204, 2476, 2475, 2219, 2220
1947, 2461, 2460, 2204, 2205, 2477, 2476, 2220, 2221
1948, 2462, 2461, 2205, 2206, 2478, 2477, 2221, 2222
1949, 2463, 2462, 2206, 2207, 2479, 2478, 2222, 2223
1950, 2464, 2463, 2207, 2208, 2480, 2479, 2223, 2224
1951, 2465, 2466, 2210, 2209, 2481, 2482, 2226, 2225
1952, 2467, 2465, 2209, 2211, 2483, 2481, 2225, 2227
1953, 2468, 2467, 2211, 2212, 2484, 2483, 2227, 2228
1954, 2469, 2468, 2212, 2213, 2485, 2484, 2228, 2229
1955, 2470, 2469, 2213, 2214, 2486, 2485, 2229, 2230
1956, 2471, 2470, 2214, 2215, 2487, 2486, 2230, 2231
1957, 2472, 2471, 2215, 2216, 2488, 2487, 2231, 2232
1958, 2473, 2472, 2216, 2217, 2489, 2488, 2232, 2233
1959, 2474, 2473, 2217, 2218, 2490, 2489, 2233, 2234
1960, 2475, 2474, 2218, 2219, 2491, 2490, 2234, 2235
1961, 2476, 2475, 2219, 2220, 2492, 2491, 2235, 2236
1962, 2477, 2476, 2220, 2221, 2493, 2492, 2236, 2237
1963, 2478, 2477, 2221, 2222, 2494, 2493, 2237, 2238
1964, 2479, 2478, 2222, 2223, 2495, 2494, 2238, 2239
1965, 2480, 2479, 2223, 2224, 2496, 2495, 2239, 2240
1966, 2481, 2482, 2226, 2225, 2497, 2498, 2242, 2241
1967, 2483, 2481, 2225, 2227, 2499, 2497, 2241, 2243
1968, 2484, 2483, 2227, 2228, 2500, 2499, 2243, 2244
1969, 2485, 2484, 2228, 2229, 2501, 2500, 2244, 2245
1970, 2486, 2485, 2229, 2230, 2502, 2501, 2245, 2246
1971, 2487, 2486, 2230, 2231, 2503, 2502, 2246, 2247
1972, 2488, 2487, 2231, 2232, 2504, 2503, 2247, 2248
1973, 2489, 2488, 2232, 2233, 2505, 2504, 2248, 2249
1974, 2490, 2489, 2233, 2234, 2506, 2505, 2249, 2250
1975, 2491, 2490, 2234, 2235, 2507, 2506, 2250, 2251
1976, 2492, 2491, 2235, 2236, 2508, 2507, 2251, 2252
1977, 2493, 2492, 2236, 2237, 2509, 2508, 2252, 2253
1978, 2494, 2493, 2237, 2238, 2510, 2509, 2253, 2254
1979, 2495, 2494, 2238, 2239, 2511, 2510, 2254, 2255
1980, 2496, 2495, 2239, 2240, 2512, 2511, 2255, 2256
1981, 2497, 2498, 2242, 2241, 2513, 2514, 2258, 2257
1982, 2499, 2497, 2241, 2243, 2515, 2513, 2257, 2259
1983, 2500, 2499, 2243, 2244, 2516, 2515, 2259, 2260
1984, 2501, 2500, 2244, 2245, 2517, 2516, 2260, 2261
1985, 2502, 2501, 2245, 2246, 2518, 2517, 2261, 2262
1986, 2503, 2502, 2246, 2247, 2519, 2518, 2262, 2263
1987, 2504, 2503, 2247, 2248, 2520, 2519, 2263, 2264
1988, 2505, 2504, 2248, 2249, 2521, 2520, 2264, 2265
1989, 2506, 2505, 2249, 2250, 2522, 2521, 2265, 2266
1990, 2507, 2506, 2250, 2251, 2523, 2522, 2266, 2267
1991, 2508, 2507, 2251, 2252, 2524, 2523, 2267, 2268
1992, 2509, 2508, 2252, 2253, 2525, 2524, 2268, 2269
1993, 2510, 2509, 2253, 2254, 2526, 2525, 2269, 2270
1994, 2511, 2510, 2254, 2255, 2527, 2526, 2270, 2271
1995, 2512, 2511, 2255, 2256, 2528, 2527, 2271, 2272
1996, 2513, 2514, 2258, 2257, 2529, 2530, 2274, 2273
1997, 2515, 2513, 2257, 2259, 2531, 2529, 2273, 2275
1998, 2516, 2515, 2259, 2260, 2532, 2531, 2275, 2276
1999, 2517, 2516, 2260, 2261, 2533, 2532, 2276, 2277
2000, 2518, 2517, 2261, 2262, 2534, 2533, 2277, 2278
2001, 2519, 2518, 2262, 2263, 2535, 2534, 2278, 2279
2002, 2520, 2519, 2263, 2264, 2536, 2535, 2279, 2280
2003, 2521, 2520, 2264, 2265, 2537, 2536, 2280, 2281
2004, 2522, 2521, 2265, 2266, 2538, 2537, 2281, 2282
2005, 2523, 2522, 2266, 2267, 2539, 2538, 2282, 2283
2006, 2524, 2523, 2267, 2268, 2540, 2539, 2283, 2284
2007, 2525, 2524, 2268, 2269, 2541, 2540, 2284, 2285
2008, 2526, 2525, 2269, 2270, 2542, 2541, 2285, 2286
2009, 2527, 2526, 2270, 2271, 2543, 2542, 2286, 2287
2010, 2528, 2527, 2271, 2272, 2544, 2543, 2287, 2288
2011, 2529, 2530, 2274, 2273, 2545, 2546, 2290, 2289
2012, 2531, 2529, 2273, 2275, 2547, 2545, 2289, 2291
2013, 2532, 2531, 2275, 2276, 2548, 2547, 2291, 2292
2014, 2533, 2532, 2276, 2277, 2549, 2548, 2292, 2293
2015, 2534, 2533, 2277, 2278, 2550, 2549, 2293, 2294
2016, 2535, 2534, 2278, 2279, 2551, 2550, 2294, 2295
2017, 2536, 2535, 2279, 2280, 2552, 2551, 2295, 2296
2018, 2537, 2536, 2280, 2281, 2553, 2552, 2296, 2297
2019, 2538, 2537, 2281, 2282, 2554, 2553, 2297, 2298
2020, 2539, 2538, 2282, 2283, 2555, 2554, 2298, 2299
2021, 2540, 2539, 2283, 2284, 2556, 2555, 2299, 2300
2022, 2541, 2540, 2284, 2285, 2557, 2556, 2300, 2301
2023, 2542, 2541, 2285, 2286, 2558, 2557, 2301, 2302
2024, 2543, 2542, 2286, 2287, 2559, 2558, 2302, 2303
2025, 2544, 2543, 2287, 2288, 2560, 2559, 2303, 2304
2026, 2561, 2562, 2306, 2305, 2563, 2564, 2308, 2307
2027, 2565, 2561, 2305, 2309, 2566, 2563, 2307, 2310
2028, 2567, 2565, 2309, 2311, 2568, 2566, 2310, 2312
2029, 2569, 2567, 2311, 2313, 2570, 2568, 2312, 2314
2030, 2571, 2569, 2313, 2315, 2572, 2570, 2314, 2316
2031, 2573, 2571, 2315, 2317, 2574, 2572, 2316, 2318
2032, 2575, 2573, 2317, 2319, 2576, 2574, 2318, 2320
2033, 2577, 2575, 2319, 2321, 2578, 2576, 2320, 2322
2034, 2579, 2577, 2321, 2323, 2580, 2578, 2322, 2324
2035, 2581, 2579, 2323, 2325, 2582, 2580, 2324, 2326
2036, 2583, 2581, 2325, 2327, 2584, 2582, 2326, 2328
2037, 2585, 2583, 2327, 2329, 2586, 2584, 2328, 2330
2038, 2587, 2585, 2329, 2331, 2588, 2586, 2330, 2332
2039, 2589, 2587, 2331, 2333, 2590, 2588, 2332, 2334
2040, 2591, 2589, 2333, 2335, 2592, 2590, 2334, 2336
2041, 2563, 2564, 2308, 2307, 2593, 2594, 2338, 2337
2042, 2566, 2563, 2307, 2310, 2595, 2593, 2337, 2339
2043, 2568, 2566, 2310, 2312, 2596, 2595, 2339, 2340
2044, 2570, 2568, 2312, 2314, 2597, 2596, 2340, 2341
2045, 2572, 2570, 2314, 2316, 2598, 2597, 2341, 2342
2046, 2574, 2572, 2316, 2318, 2599, 2598, 2342, 2343
2047, 2576, 2574, 2318, 2320, 2600, 2599, 2343, 2344
2048, 2578, 2576, 2320, 2322, 2601, 2600, 2344, 2345
2049, 2580, 2578, 2322, 2324, 2602, 2601, 2345, 2346
2050, 2582, 2580, 2324, 2326, 2603, 2602, 2346, 2347
2051, 2584, 2582, 2326, 2328, 2604, 2603, 2347, 2348
2052, 2586, 2584, 2328, 2330, 2605, 2604, 2348, 2349
2053, 2588, 2586, 2330, 2332, 2606, 2605, 2349, 2350
2054, 2590, 2588, 2332, 2334, 2607, 2606, 2350, 2351
2055, 2592, 2590, 2334, 2336, 2608, 2607, 2351, 2352
2056, 2593, 2594, 2338, 2337, 2609, 2610, 2354, 2353
2057, 2595, 2593, 2337, 2339, 2611, 2609, 2353, 2355
2058, 2596, 2595, 2339, 2340, 2612, 2611, 2355, 2356
2059, 2597, 2596, 2340, 2341, 2613, 2612, 2356, 2357
2060, 2598, 2597, 2341, 2342, 2614, 2613, 2357, 2358
2061, 2599, 2598, 2342, 2343, 2615, 2614, 2358, 2359
2062, 2600, 2599, 2343, 2344, 2616, 2615, 2359, 2360
2063, 2601, 2600, 2344, 2345, 2617, 2616, 2360, 2361
2064, 2602, 2601, 2345, 2346, 2618, 2617, 2361, 2362
2065, 2603, 2602, 2346, 2347, 2619, 2618, 2362, 2363
2066, 2604, 2603, 2347, 2348, 2620, 2619, 2363, 2364
2067, 2605, 2604, 2348, 2349, 2621, 2620, 2364, 2365
2068, 2606, 2605, 2349, 2350, 2622, 2621, 2365, 2366
2069, 2607, 2606, 2350, 2351, 2623, 2622, 2366, 2367
2070, 2608, 2607, 2351, 2352, 2624, 2623, 2367, 2368
2071, 2609, 2610, 2354, 2353, 2625, 2626, 2370, 2369
2072, 2611, 2609, 2353, 2355, 2627, 2625, 2369, 2371
2073, 2612, 2611, 2355, 2356, 2628, 2627, 2371, 2372
2074, 2613, 2612, 2356, 2357, 2629, 2628, 2372, 2373
2075, 2614, 2613, 2357, 2358, 2630, 2629, 2373, 2374
2076, 2615, 2614, 2358, 2359, 2631, 2630, 2374, 2375
2077, 2616, 2615, 2359, 2360, 2632, 2631, 2375, 2376
2078, 2617, 2616, 2360, 2361, 2633, 2632, 2376, 2377
2079, 2618, 2617, 2361, 2362, 2634, 2633, 2377, 2378
2080, 2619, 2618, 2362, 2363, 2635, 2634, 2378, 2379
2081, 2620, 2619, 2363, 2364, 2636, 2635, 2379, 2380
2082, 2621, 2620, 2364, 2365, 2637, 2636, 2380, 2381
2083, 2622, 2621, 2365, 2366, 2638, 2637, 2381, 2382
2084, 2623, 2622, 2366, 2367, 2639, 2638, 2382, 2383
2085, 2624, 2623, 2367, 2368, 2640, 2639, 2383, 2384
2086, 2625, 2626, 2370, 2369, 2641, 2642, 2386, 2385
2087, 2627, 2625, 2369, 2371, 2643, 2641, 2385, 2387
2088, 2628, 2627, 2371, 2372, 2644, 2643, 2387, 2388
2089, 2629, 2628, 2372, 2373, 2645, 2644, 2388, 2389
2090, 2630, 2629, 2373, 2374, 2646, 2645, 2389, 2390
2091, 2631, 2630, 2374, 2375, 2647, 2646, 2390, 2391
2092, 2632, 2631, 2375, 2376, 2648, 2647, 2391, 2392
2093, 2633, 2632, 2376, 2377, 2649, 2648, 2392, 2393
2094, 2634, 2633, 2377, 2378, 2650, 2649, 2393, 2394
2095, 2635, 2634, 2378, 2379, 2651, 2650, 2394, 2395
2096, 2636, 2635, 2379, 2380, 2652, 2651, 2395, 2396
2097, 2637, 2636, 2380, 2381, 2653, 2652, 2396, 2397
2098, 2638, 2637, 2381, 2382, 2654, 2653, 2397, 2398
2099, 2639, 2638, 2382, 2383, 2655, 2654, 2398, 2399
2100, 2640, 2639, 2383, 2384, 2656, 2655, 2399, 2400
2101, 2641, 2642, 2386, 2385, 2657, 2658, 2402, 2401
2102, 2643, 2641, 2385, 2387, 2659, 2657, 2401, 2403
2103, 2644, 2643, 2387, 2388, 2660, 2659, 2403, 2404
2104, 2645, 2644, 2388, 2389, 2661, 2660, 2404, 2405
2105, 2646, 2645, 2389, 2390, 2662, 2661, 2405, 2406
2106, 2647, 2646, 2390, 2391, 2663, 2662, 2406, 2407
2107, 2648, 2647, 2391, 2392, 2664, 2663, 2407, 2408
2108, 2649, 2648, 2392, 2393, 2665, 2664, 2408, 2409
2109, 2650, 2649, 2393, 2394, 2666, 2665, 2409, 2410
2110, 2651, 2650, 2394, 2395, 2667, 2666, 2410, 2411
2111, 2652, 2651, 2395, 2396, 2668, 2667, 2411, 2412
2112, 2653, 2652, 2396, 2397, 2669, 2668, 2412, 2413
2113, 2654, 2653, 2397, 2398, 2670, 2669, 2413, 2414
2114, 2655, 2654, 2398, 2399, 2671, 2670, 2414, 2415
2115, 2656, 2655, 2399, 2400, 2672, 2671, 2415, 2416
2116, 2657, 2658, 2402, 2401, 2673, 2674, 2418, 2417
2117, 2659, 2657, 2401, 2403, 2675, 2673, 2417, 2419
2118, 2660, 2659, 2403, 2404, 2676, 2675, 2419, 2420
2119, 2661, 2660, 2404, 2405, 2677, 2676, 2420, 2421
2120, 2662, 2661, 2405, 2406, 2678, 2677, 2421, 2422
2121, 2663, 2662, 2406, 2407, 2679, 2678, 2422, 2423
2122, 2664, 2663, 2407, 2408, 2680, 2679, 2423, 2424
2123, 2665, 2664, 2408, 2409, 2681, 2680, 2424, 2425
2124, 2666, 2665, 2409, 2410, 2682, 2681, 2425, 2426
2125, 2667, 2666, 2410, 2411, 2683, 2682, 2426, 2427
2126, 2668, 2667, 2411, 2412, 2684, 2683, 2427, 2428
2127, 2669, 2668, 2412, 2413, 2685, 2684, 2428, 2429
2128, 2670, 2669, 2413, 2414, 2686, 2685, 2429, 2430
2129, 2671, 2670, 2414, 2415, 2687, 2686, 2430, 2431
2130, 2672, 2671, 2415, 2416, 2688, 2687, 2431, 2432
2131, 2673, 2674, 2418, 2417, 2689, 2690, 2434, 2433
2132, 2675, 2673, 2417, 2419, 2691, 2689, 2433, 2435
2133, 2676, 2675, 2419, 2420, 2692, 2691, 2435, 2436
2134, 2677, 2676, 2420, 2421, 2693, 2692, 2436, 2437
2135, 2678, 2677, 2421, 2422, 2694, 2693, 2437, 2438
2136, 2679, 2678, 2422, 2423, 2695, 2694, 2438, 2439
2137, 2680, 2679, 2423, 2424, 2696, 2695, 2439, 2440
2138, 2681, 2680, 2424, 2425, 2697, 2696, 2440, 2441
2139, 2682, 2681, 2425, 2426, 2698, 2697, 2441, 2442
2140, 2683, 2682, 2426, 2427, 2699, 2698, 2442, 2443
2141, 2684, 2683, 2427, 2428, 2700, 2699, 2443, 2444
2142, 2685, 2684, 2428, 2429, 2701, 2700, 2444, 2445
2143, 2686, 2685, 2429, 2430, 2702, 2701, 2445, 2446
2144, 2687, 2686, 2430, 2431, 2703, 2702, 2446, 2447
2145, 2688, 2687, 2431, 2432, 2704, 2703, 2447, 2448
2146, 2689, 2690, 2434, 2433, 2705, 2706, 2450, 2449
2147, 2691, 2689, 2433, 2435, 2707, 2705, 2449, 2451
2148, 2692, 2691, 2435, 2436, 2708, 2707, 2451, 2452
2149, 2693, 2692, 2436, 2437, 2709, 2708, 2452, 2453
2150, 2694, 2693, 2437, 2438, 2710, 2709, 2453, 2454
2151, 2695, 2694, 2438, 2439, 2711, 2710, 2454, 2455
2152, 2696, 2695, 2439, 2440, 2712, 2711, 2455, 2456
2153, 2697, 2696, 2440, 2441, 2713, 2712, 2456, 2457
2154, 2698, 2697, 2441, 2442, 2714, 2713, 2457, 2458
2155, 2699, 2698, 2442, 2443, 2715, 2714, 2458, 2459
2156, 2700, 2699, 2443, 2444, 2716, 2715, 2459, 2460
2157, 2701, 2700, 2444, 2445, 2717, 2716, 2460, 2461
2158, 2702, 2701, 2445, 2446, 2718, 2717, 2461, 2462
2159, 2703, 2702, 2446, 2447, 2719, 2718, 2462, 2463
2160, 2704, 2703, 2447, 2448, 2720, 2719, 2463, 2464
2161, 2705, 2706, 2450, 2449, 2721, 2722, 2466, 2465
2162, 2707, 2705, 2449, 2451, 2723, 2721, 2465, 2467
2163, 2708, 2707, 2451, 2452, 2724, 2723, 2467, 2468
2164, 2709, 2708, 2452, 2453, 2725, 2724, 2468, 2469
2165, 2710, 2709, 2453, 2454, 2726, 2725, 2469, 2470
2166, 2711, 2710, 2454, 2455, 2727, 2726, 2470, 2471
2167, 2712, 2711, 2455, 2456, 2728, 2727, 2471, 2472
2168, 2713, 2712, 2456, 2457, 2729, 2728, 2472, 2473
2169, 2714, 2713, 2457, 2458, 2730, 2729, 2473, 2474
2170, 2715, 2714, 2458, 2459, 2731, 2730, 2474, 2475
2171, 2716, 2715, 2459, 2460, 2732, 2731, 2475, 2476
2172, 2717, 2716, 2460, 2461, 2733, 2732, 2476, 2477
2173, 2718, 2717, 2461, 2462, 2734, 2733, 2477, 2478
2174, 2719, 2718, 2462, 2463, 2735, 2734, 2478, 2479
2175, 2720, 2719, 2463, 2464, 2736, 2735, 2479, 2480
2176, 2721, 2722, 2466, 2465, 2737, 2738, 2482, 2481
2177, 2723, 2721, 2465, 2467, 2739, 2737, 2481, 2483
2178, 2724, 2723, 2467, 2468, 2740, 2739, 2483, 2484
2179, 2725, 2724, 2468, 2469, 2741, 2740, 2484, 2485
2180, 2726, 2725, 2469, 2470, 2742, 2741, 2485, 2486
2181, 2727, 2726, 2470, 2471, 2743, 2742, 2486, 2487
2182, 2728, 2727, 2471, 2472, 2744, 2743, 2487, 2488
2183, 2729, 2728, 2472, 2473, 2745, 2744, 2488, 2489
2184, 2730, 2729, 2473, 2474, 2746, 2745, 2489, 2490
2185, 2731, 2730, 2474, 2475, 2747, 2746, 2490, 2491
2186, 2732, 2731, 2475, 2476, 2748, 2747, 2491, 2492
2187, 2733, 2732, 2476, 2477, 2749, 2748, 2492, 2493
2188, 2734, 2733, 2477, 2478, 2750, 2749, 2493, 2494
2189, 2735, 2734, 2478, 2479, 2751, 2750, 2494, 2495
2190, 2736, 2735, 2479, 2480, 2752, 2751, 2495, 2496
2191, 2737, 2738, 2482, 2481, 2753, 2754, 2498, 2497
2192, 2739, 2737, 2481, 2483, 2755, 2753, 2497, 2499
2193, 2740, 2739, 2483, 2484, 2756, 2755, 2499, 2500
2194, 2741, 2740, 2484, 2485, 2757, 2756, 2500, 2501
2195, 2742, 2741, 2485, 2486, 2758, 2757, 2501, 2502
2196, 2743, 2742, 2486, 2487, 2759, 2758, 2502, 2503
2197, 2744, 2743, 2487, 2488, 2760, 2759, 2503, 2504
2198, 2745, 2744, 2488, 2489, 2761, 2760, 2504, 2505
2199, 2746, 2745, 2489, 2490, 2762, 2761, 2505, 2506
2200, 2747, 2746, 2490, 2491, 2763, 2762, 2506, 2507
2201, 2748, 2747, 2491, 2492, 2764, 2763, 2507, 2508
2202, 2749, 2748, 2492, 2493, 2765, 2764, 2508, 2509
2203, 2750, 2749, 2493, 2494, 2766, 2765, 2509, 2510
2204, 2751, 2750, 2494, 2495, 2767, 2766, 2510, 2511
2205, 2752, 2751, 2495, 2496, 2768, 2767, 2511, 2512
2206, 2753, 2754, 2498, 2497, 2769, 2770, 2514, 2513
2207, 2755, 2753, 2497, 2499, 2771, 2769, 2513, 2515
2208, 2756, 2755, 2499, 2500, 2772, 2771, 2515, 2516
2209, 2757, 2756, 2500, 2501, 2773, 2772, 2516, 2517
2210, 2758, 2757, 2501, 2502, 2774, 2773, 2517, 2518
2211, 2759, 2758, 2502, 2503, 2775, 2774, 2518, 2519
2212, 2760, 2759, 2503, 2504, 2776, 2775, 2519, 2520
2213, 2761, 2760, 2504, 2505, 2777, 2776, 2520, 2521
2214, 2762, 2761, 2505, 2506, 2778, 2777, 2521, 2522
2215, 2763, 2762, 2506, 2507, 2779, 2778, 2522, 2523
2216, 2764, 2763, 2507, 2508, 2780, 2779, 2523, 2524
2217, 2765, 2764, 2508, 2509, 2781, 2780, 2524, 2525
2218, 2766, 2765, 2509, 2510, 2782, 2781, 2525, 2526
2219, 2767, 2766, 2510, 2511, 2783, 2782, 2526, 2527
2220, 2768, 2767, 2511, 2512, 2784, 2783, 2527, 2528
2221, 2769, 2770, 2514, 2513, 2785, 2786, 2530, 2529
2222, 2771, 2769, 2513, 2515, 2787, 2785, 2529, 2531
2223, 2772, 2771, 2515, 2516, 2788, 2787, 2531, 2532
2224, 2773, 2772, 2516, 2517, 2789, 2788, 2532, 2533
2225, 2774, 2773, 2517, 2518, 2790, 2789, 2533, 2534
2226, 2775, 2774, 2518, 2519, 2791, 2790, 2534, 2535
2227, 2776, 2775, 2519, 2520, 2792, 2791, 2535, 2536
2228, 2777, 2776, 2520, 2521, 2793, 2792, 2536, 2537
2229, 2778, 2777, 2521, 2522, 2794, 2793, 2537, 2538
2230, 2779, 2778, 2522, 2523, 2795, 2794, 2538, 2539
2231, 2780, 2779, 2523, 2524, 2796, 2795, 2539, 2540
2232, 2781, 2780, 2524, 2525, 2797, 2796, 2540, 2541
2233, 2782, 2781, 2525, 2526, 2798, 2797, 2541, 2542
2234, 2783, 2782, 2526, 2527, 2799, 2798, 2542, 2543
2235, 2784, 2783, 2527, 2528, 2800, 2799, 2543, 2544
2236, 2785, 2786, 2530, 2529, 2801, 2802, 2546, 2545
2237, 2787, 2785, 2529, 2531, 2803, 2801, 2545, 2547
2238, 2788, 2787, 2531, 2532, 2804, 2803, 2547, 2548
2239, 2789, 2788, 2532, 2533, 2805, 2804, 2548, 2549
2240, 2790, 2789, 2533, 2534, 2806, 2805, 2549, 2550
2241, 2791, 2790, 2534, 2535, 2807, 2806, 2550, 2551
2242, 2792, 2791, 2535, 2536, 2808, 2807, 2551, 2552
2243, 2793, 2792, 2536, 2537, 2809, 2808, 2552, 2553
2244, 2794, 2793, 2537, 2538, 2810, 2809, 2553, 2554
2245, 2795, 2794, 2538, 2539, 2811, 2810, 2554, 2555
2246, 2796, 2795, 2539, 2540, 2812, 2811, 2555, 2556
2247, 2797, 2796, 2540, 2541, 2813, 2812, 2556, 2557
2248, 2798, 2797, 2541, 2542, 2814, 2813, 2557, 2558
2249, 2799, 2798, 2542, 2543, 2815, 2814, 2558, 2559
2250, 2800, 2799, 2543, 2544, 2816, 2815, 2559, 2560
2251, 2817, 2818, 2562, 2561, 2819, 2820, 2564, 2563
2252, 2821, 2817, 2561, 2565, 2822, 2819, 2563, 2566
2253, 2823, 2821, 2565, 2567, 2824, 2822, 2566, 2568
2254, 2825, 2823, 2567, 2569, 2826, 2824, 2568, 2570
2255, 2827, 2825, 2569, 2571, 2828, 2826, 2570, 2572
2256, 2829, 2827, 2571, 2573, 2830, 2828, 2572, 2574
2257, 2831, 2829, 2573, 2575, 2832, 2830, 2574, 2576
2258, 2833, 2831, 2575, 2577, 2834, 2832, 2576, 2578
2259, 2835, 2833, 2577, 2579, 2836, 2834, 2578, 2580
2260, 2837, 2835, 2579, 2581, 2838, 2836, 2580, 2582
2261, 2839, 2837, 2581, 2583, 2840, 2838, 2582, 2584
2262, 2841, 2839, 2583, 2585, 2842, 2840, 2584, 2586
2263, 2843, 2841, 2585, 2587, 2844, 2842, 2586, 2588
2264, 2845, 2843, 2587, 2589, 2846, 2844, 2588, 2590
2265, 2847, 2845, 2589, 2591, 2848, 2846, 2590, 2592
2266, 2819, 2820, 2564, 2563, 2849, 2850, 2594, 2593
2267, 2822, 2819, 2563, 2566, 2851, 2849, 2593, 2595
2268, 2824, 2822, 2566, 2568, 2852, 2851, 2595, 2596
2269, 2826, 2824, 2568, 2570, 2853, 2852, 2596, 2597
2270, 2828, 2826, 2570, 2572, 2854, 2853, 2597, 2598
2271, 2830, 2828, 2572, 2574, 2855, 2854, 2598, 2599
2272, 2832, 2830, 2574, 2576, 2856, 2855, 2599, 2600
2273, 2834, 2832, 2576, 2578, 2857, 2856, 2600, 2601
2274, 2836, 2834, 2578, 2580, 2858, 2857, 2601, 2602
2275, 2838, 2836, 2580, 2582, 2859, 2858, 2602, 2603
2276, 2840, 2838, 2582, 2584, 2860, 2859, 2603, 2604
2277, 2842, 2840, 2584, 2586, 2861, 2860, 2604, 2605
2278, 2844, 2842, 2586, 2588, 2862, 2861, 2605, 2606
2279, 2846, 2844, 2588, 2590, 2863, 2862, 2606, 2607
2280, 2848, 2846, 2590, 2592, 2864, 2863, 2607, 2608
2281, 2849, 2850, 2594, 2593, 2865, 2866, 2610, 2609
2282, 2851, 2849, 2593, 2595, 2867, 2865, 2609, 2611
2283, 2852, 2851, 2595, 2596, 2868, 2867, 2611, 2612
2284, 2853, 2852, 2596, 2597, 2869, 2868, 2612, 2613
2285, 2854, 2853, 2597, 2598, 2870, 2869, 2613, 2614
2286, 2855, 2854, 2598, 2599, 2871, 2870, 2614, 2615
2287, 2856, 2855, 2599, 2600, 2872, 2871, 2615, 2616
2288, 2857, 2856, 2600, 2601, 2873, 2872, 2616, 2617
2289, 2858, 2857, 2601, 2602, 2874, 2873, 2617, 2618
2290, 2859, 2858, 2602, 2603, 2875, 2874, 2618, 2619
2291, 2860, 2859, 2603, 2604, 2876, 2875, 2619, 2620
2292, 2861, 2860, 2604, 2605, 2877, 2876, 2620, 2621
2293, 2862, 2861, 2605, 2606, 2878, 2877, 2621, 2622
2294, 2863, 2862, 2606, 2607, 2879, 2878, 2622, 2623
2295, 2864, 2863, 2607, 2608, 2880, 2879, 2623, 2624
2296, 2865, 2866, 2610, 2609, 2881, 2882, 2626, 2625
2297, 2867, 2865, 2609, 2611, 2883, 2881, 2625, 2627
2298, 2868, 2867, 2611, 2612, 2884, 2883, 2627, 2628
2299, 2869, 2868, 2612, 2613, 2885, 2884, 2628, 2629
2300, 2870, 2869, 2613, 2614, 2886, 2885, 2629, 2630
2301, 2871, 2870, 2614, 2615, 2887, 2886, 2630, 2631
2302, 2872, 2871, 2615, 2616, 2888, 2887, 2631, 2632
2303, 2873, 2872, 2616, 2617, 2889, 2888, 2632, 2633
2304, 2874, 2873, 2617, 2618, 2890, 2889, 2633, 2634
2305, 2875, 2874, 2618, 2619, 2891, 2890, 2634, 2635
2306, 2876, 2875, 2619, 2620, 2892, 2891, 2635, 2636
2307, 2877, 2876, 2620, 2621, 2893, 2892, 2636, 2637
2308, 2878, 2877, 2621, 2622, 2894, 2893, 2637, 2638
2309, 2879, 2878, 2622, 2623, 2895, 2894, 2638, 2639
2310, 2880, 2879, 2623, 2624, 2896, 2895, 2639, 2640
2311, 2881, 2882, 2626, 2625, 2897, 2898, 2642, 2641
2312, 2883, 2881, 2625, 2627, 2899, 2897, 2641, 2643
2313, 2884, 2883, 2627, 2628, 2900, 2899, 2643, 2644
2314, 2885, 2884, 2628, 2629, 2901, 2900, 2644, 2645
2315, 2886, 2885, 2629, 2630, 2902, 2901, 2645, 2646
2316, 2887, 2886, 2630, 2631, 2903, 2902, 2646, 2647
2317, 2888, 2887, 2631, 2632, 2904, 2903, 2647, 2648
2318, 2889, 2888, 2632, 2633, 2905, 2904, 2648, 2649
2319, 2890, 2889, 2633, 2634, 2906, 2905, 2649, 2650
2320, 2891, 2890, 2634, 2635, 2907, 2906, 2650, 2651
2321, 2892, 2891, 2635, 2636, 2908, 2907, 2651, 2652
2322, 2893, 2892, 2636, 2637, 2909, 2908, 2652, 2653
2323, 2894, 2893, 2637, 2638, 2910, 2909, 2653, 2654
2324, 2895, 2894, 2638, 2639, 2911, 2910, 2654, 2655
2325, 2896, 2895, 2639, 2640, 2912, 2911, 2655, 2656
2326, 2897, 2898, 2642, 2641, 2913, 2914, 2658, 2657
2327, 2899, 2897, 2641, 2643, 2915, 2913, 2657, 2659
2328, 2900, 2899, 2643, 2644, 2916, 2915, 2659, 2660
2329, 2901, 2900, 2644, 2645, 2917, 2916, 2660, 2661
2330, 2902, 2901, 2645, 2646, 2918, 2917, 2661, 2662
2331, 2903, 2902, 2646, 2647, 2919, 2918, 2662, 2663
2332, 2904, 2903, 2647, 2648, 2920, 2919, 2663, 2664
2333, 2905, 2904, 2648, 2649, 2921, 2920, 2664, 2665
2334, 2906, 2905, 2649, 2650, 2922, 2921, 2665, 2666
2335, 2907, 2906, 2650, 2651, 2923, 2922, 2666, 2667
2336, 2908, 2907, 2651, 2652, 2924, 2923, 2667, 2668
2337, 2909, 2908, 2652, 2653, 2925, 2924, 2668, 2669
2338, 2910, 2909, 2653, 2654, 2926, 2925, 2669, 2670
2339, 2911, 2910, 2654, 2655, 2927, 2926, 2670, 2671
2340, 2912, 2911, 2655, 2656, 2928, 2927, 2671, 2672
2341, 2913, 2914, 2658, 2657, 2929, 2930, 2674, 2673
2342, 2915, 2913, 2657, 2659, 2931, 2929, 2673, 2675
2343, 2916, 2915, 2659, 2660, 2932, 2931, 2675, 2676
2344, 2917, 2916, 2660, 2661, 2933, 2932, 2676, 2677
2345, 2918, 2917, 2661, 2662, 2934, 2933, 2677, 2678
2346, 2919, 2918, 2662, 2663, 2935, 2934, 2678, 2679
2347, 2920, 2919, 2663, 2664, 2936, 2935, 2679, 2680
2348, 2921, 2920, 2664, 2665, 2937, 2936, 2680, 2681
2349, 2922, 2921, 2665, 2666, 2938, 2937, 2681, 2682
2350, 2923, 2922, 2666, 2667, 2939, 2938, 2682, 2683
2351, 2924, 2923, 2667, 2668, 2940, 2939, 2683, 2684
2352, 2925, 2924, 2668, 2669, 2941, 2940, 2684, 2685
2353, 2926, 2925, 2669, 2670, 2942, 2941, 2685, 2686
2354, 2927, 2926, 2670, 2671, 2943, 2942, 2686, 2687
2355, 2928, 2927, 2671, 2672, 2944, 2943, 2687, 2688
2356, 2929, 2930, 2674, 2673, 2945, 2946, 2690, 2689
2357, 2931, 2929, 2673, 2675, 2947, 2945, 2689, 2691
2358, 2932, 2931, 2675, 2676, 2948, 2947, 2691, 2692
2359, 2933, 2932, 2676, 2677, 2949, 2948, 2692, 2693
2360, 2934, 2933, 2677, 2678, 2950, 2949, 2693, 2694
2361, 2935, 2934, 2678, 2679, 2951, 2950, 2694, 2695
2362, 2936, 2935, 2679, 2680, 2952, 2951, 2695, 2696
2363, 2937, 2936, 2680, 2681, 2953, 2952, 2696, 2697
2364, 2938, 2937, 2681, 2682, 2954, 2953, 2697, 2698
2365, 2939, 2938, 2682, 2683, 2955, 2954, 2698, 2699
2366, 2940, 2939, 2683, 2684, 2956, 2955, 2699, 2700
2367, 2941, 2940, 2684, 2685, 2957, 2956, 2700, 2701
2368, 2942, 2941, 2685, 2686, 2958, 2957, 2701, 2702
2369, 2943, 2942, 2686, 2687, 2959, 2958, 2702, 2703
2370, 2944, 2943, 2687, 2688, 2960, 2959, 2703, 2704
2371, 2945, 2946, 2690, 2689, 2961, 2962, 2706, 2705
2372, 2947, 2945, 2689, 2691, 2963, 2961, 2705, 2707
2373, 2948, 2947, 2691, 2692, 2964, 2963, 2707, 2708
2374, 2949, 2948, 2692, 2693, 2965, 2964, 2708, 2709
2375, 2950, 2949, 2693, 2694, 2966, 2965, 2709, 2710
2376, 2951, 2950, 2694, 2695, 2967, 2966, 2710, 2711
2377, 2952, 2951, 2695, 2696, 2968, 2967, 2711, 2712
2378, 2953, 2952, 2696, 2697, 2969, 2968, 2712, 2713
2379, 2954, 2953, 2697, 2698, 2970, 2969, 2713, 2714
2380, 2955, 2954, 2698, 2699, 2971, 2970, 2714, 2715
2381, 2956, 2955, 2699, 2700, 2972, 2971, 2715, 2716
2382, 2957, 2956, 2700, 2701, 2973, 2972, 2716, 2717
2383, 2958, 2957, 2701, 2702, 2974, 2973, 2717, 2718
2384, 2959, 2958, 2702, 2703, 2975, 2974, 2718, 2719
2385, 2960, 2959, 2703, 2704, 2976, 2975, 2719, 2720
2386, 2961, 2962, 2706, 2705, 2977, 2978, 2722, 2721
2387, 2963, 2961, 2705, 2707, 2979, 2977, 2721, 2723
2388, 2964, 2963, 2707, 2708, 2980, 2979, 2723, 2724
2389, 2965, 2964, 2708, 2709, 2981, 2980, 2724, 2725
2390, 2966, 2965, 2709, 2710, 2982, 2981, 2725, 2726
2391, 2967, 2966, 2710, 2711, 2983, 2982, 2726, 2727
2392, 2968, 2967, 2711, 2712, 2984, 2983, 2727, 2728
2393, 2969, 2968, 2712, 2713, 2985, 2984, 2728, 2729
2394, 2970, 2969, 2713, 2714, 2986, 2985, 2729, 2730
2395, 2971, 2970, 2714, 2715, 2987, 2986, 2730, 2731
2396, 2972, 2971, 2715, 2716, 2988, 2987, 2731, 2732
2397, 2973, 2972, 2716, 2717, 2989, 2988, 2732, 2733
2398, 2974, 2973, 2717, 2718, 2990, 2989, 2733, 2734
2399, 2975, 2974, 2718, 2719, 2991, 2990, 2734, 2735
2400, 2976, 2975, 2719, 2720, 2992, 2991, 2735, 2736
2401, 2977, 2978, 2722, 2721, 2993, 2994, 2738, 2737
2402, 2979, 2977, 2721, 2723, 2995, 2993, 2737, 2739
2403, 2980, 2979, 2723, 2724, 2996, 2995, 2739, 2740
2404, 2981, 2980, 2724, 2725, 2997, 2996, 2740, 2741
2405, 2982, 2981, 2725, 2726, 2998, 2997, 2741, 2742
2406, 2983, 2982, 2726, 2727, 2999, 2998, 2742, 2743
2407, 2984, 2983, 2727, 2728, 3000, 2999, 2743, 2744
2408, 2985, 2984, 2728, 2729, 3001, 3000, 2744, 2745
2409, 2986, 2985, 2729, 2730, 3002, 3001, 2745, 2746
2410, 2987, 2986, 2730, 2731, 3003, 3002, 2746, 2747
2411, 2988, 2987, 2731, 2732, 3004, 3003, 2747, 2748
2412, 2989, 2988, 2732, 2733, 3005, 3004, 2748, 2749
2413, 2990, 2989, 2733, 2734, 3006, 3005, 2749, 2750
2414, 2991, 2990, 2734, 2735, 3007, 3006, 2750, 2751
2415, 2992, 2991, 2735, 2736, 3008, 3007, 2751, 2752
2416, 2993, 2994, 2738, 2737, 3009, 3010, 2754, 2753
2417, 2995, 2993, 2737, 2739, 3011, 3009, 2753, 2755
2418, 2996, 2995, 2739, 2740, 3012, 3011, 2755, 2756
2419, 2997, 2996, 2740, 2741, 3013, 3012, 2756, 2757
2420, 2998, 2997, 2741, 2742, 3014, 3013, 2757, 2758
2421, 2999, 2998, 2742, 2743, 3015, 3014, 2758, 2759
2422, 3000, 2999, 2743, 2744, 3016, 3015, 2759, 2760
2423, 3001, 3000, 2744, 2745, 3017, 3016, 2760, 2761
2424, 3002, 3001, 2745, 2746, 3018, 3017, 2761, 2762
2425, 3003, 3002, 2746, 2747, 3019, 3018, 2762, 2763
2426, 3004, 3003, 2747, 2748, 3020, 3019, 2763, 2764
2427, 3005, 3004, 2748, 2749, 3021, 3020, 2764, 2765
2428, 3006, 3005, 2749, 2750, 3022, 3021, 2765, 2766
2429, 3007, 3006, 2750, 2751, 3023, 3022, 2766, 2767
2430, 3008, 3007, 2751, 2752, 3024, 3023, 2767, 2768
2431, 3009, 3010, 2754, 2753, 3025, 3026, 2770, 2769
2432, 3011, 3009, 2753, 2755, 3027, 3025, 2769, 2771
2433, 3012, 3011, 2755, 2756, 3028, 3027, 2771, 2772
2434, 3013, 3012, 2756, 2757, 3029, 3028, 2772, 2773
2435, 3014, 3013, 2757, 2758, 3030, 3029, 2773, 2774
2436, 3015, 3014, 2758, 2759, 3031, 3030, 2774, 2775
2437, 3016, 3015, 2759, 2760, 3032, 3031, 2775, 2776
2438, 3017, 3016, 2760, 2761, 3033, 3032, 2776, 2777
2439, 3018, 3017, 2761, 2762, 3034, 3033, 2777, 2778
2440, 3019, 3018, 2762, 2763, 3035, 3034, 2778, 2779
2441, 3020, 3019, 2763, 2764, 3036, 3035, 2779, 2780
2442, 3021, 3020, 2764, 2765, 3037, 3036, 2780, 2781
2443, 3022, 3021, 2765, 2766, 3038, 3037, 2781, 2782
2444, 3023, 3022, 2766, 2767, 3039, 3038, 2782, 2783
2445, 3024, 3023, 2767, 2768, 3040, 3039, 2783, 2784
2446, 3025, 3026, 2770, 2769, 3041, 3042, 2786, 2785
2447, 3027, 3025, 2769, 2771, 3043, 3041, 2785, 2787
2448, 3028, 3027, 2771, 2772, 3044, 3043, 2787, 2788
2449, 3029, 3028, 2772, 2773, 3045, 3044, 2788, 2789
2450, 3030, 3029, 2773, 2774, 3046, 3045, 2789, 2790
2451, 3031, 3030, 2774, 2775, 3047, 3046, 2790, 2791
2452, 3032, 3031, 2775, 2776, 3048, 3047, 2791, 2792
2453, 3033, 3032, 2776, 2777, 3049, 3048, 2792, 2793
2454, 3034, 3033, 2777, 2778, 3050, 3049, 2793, 2794
2455, 3035, 3034, 2778, 2779, 3051, 3050, 2794, 2795
2456, 3036, 3035, 2779, 2780, 3052, 3051, 2795, 2796
2457, 3037, 3036, 2780, 2781, 3053, 3052, 2796, 2797
2458, 3038, 3037, 2781, 2782, 3054, 3053, 2797, 2798
2459, 3039, 3038, 2782, 2783, 3055, 3054, 2798, 2799
2460, 3040, 3039, 2783, 2784, 3056, 3055, 2799, 2800
2461, 3041, 3042, 2786, 2785, 3057, 3058, 2802, 2801
2462, 3043, 3041, 2785, 2787, 3059, 3057, 2801, 2803
2463, 3044, 3043, 2787, 2788, 3060, 3059, 2803, 2804
2464, 3045, 3044, 2788, 2789, 3061, 3060, 2804, 2805
2465, 3046, 3045, 2789, 2790, 3062, 3061, 2805, 2806
2466, 3047, 3046, 2790, 2791, 3063, 3062, 2806, 2807
2467, 3048, 3047, 2791, 2792, 3064, 3063, 2807, 2808
2468, 3049, 3048, 2792, 2793, 3065, 3064, 2808, 2809
2469, 3050, 3049, 2793, 2794, 3066, 3065, 2809, 2810
2470, 3051, 3050, 2794, 2795, 3067, 3066, 2810, 2811
2471, 3052, 3051, 2795, 2796, 3068, 3067, 2811, 2812
2472, 3053, 3052, 2796, 2797, 3069, 3068, 2812, 2813
2473, 3054, 3053, 2797, 2798, 3070, 3069, 2813, 2814
2474, 3055, 3054, 2798, 2799, 3071, 3070, 2814, 2815
2475, 3056, 3055, 2799, 2800, 3072, 3071, 2815, 2816
2476, 3073, 3074, 2818, 2817, 3075, 3076, 2820, 2819
2477, 3077, 3073, 2817, 2821, 3078, 3075, 2819, 2822
2478, 3079, 3077, 2821, 2823, 3080, 3078, 2822, 2824
2479, 3081, 3079, 2823, 2825, 3082, 3080, 2824, 2826
2480, 3083, 3081, 2825, 2827, 3084, 3082, 2826, 2828
2481, 3085, 3083, 2827, 2829, 3086, 3084, 2828, 2830
2482, 3087, 3085, 2829, 2831, 3088, 3086, 2830, 2832
2483, 3089, 3087, 2831, 2833, 3090, 3088, 2832, 2834
2484, 3091, 3089, 2833, 2835, 3092, 3090, 2834, 2836
2485, 3093, 3091, 2835, 2837, 3094, 3092, 2836, 2838
2486, 3095, 3093, 2837, 2839, 3096, 3094, 2838, 2840
2487, 3097, 3095, 2839, 2841, 3098, 3096, 2840, 2842
2488, 3099, 3097, 2841, 2843, 3100, 3098, 2842, 2844
2489, 3101, 3099, 2843, 2845, 3102, 3100, 2844, 2846
2490, 3103, 3101, 2845, 2847, 3104, 3102, 2846, 2848
2491, 3075, 3076, 2820, 2819, 3105, 3106, 2850, 2849
2492, 3078, 3075, 2819, 2822, 3107, 3105, 2849, 2851
2493, 3080, 3078, 2822, 2824, 3108, 3107, 2851, 2852
2494, 3082, 3080, 2824, 2826, 3109, 3108, 2852, 2853
2495, 3084, 3082, 2826, 2828, 3110, 3109, 2853, 2854
2496, 3086, 3084, 2828, 2830, 3111, 3110, 2854, 2855
2497, 3088, 3086, 2830, 2832, 3112, 3111, 2855, 2856
2498, 3090, 3088, 2832, 2834, 3113, 3112, 2856, 2857
2499, 3092, 3090, 2834, 2836, 3114, 3113, 2857, 2858
2500, 3094, 3092, 2836, 2838, 3115, 3114, 2858, 2859
2501, 3096, 3094, 2838, 2840, 3116, 3115, 2859, 2860
2502, 3098, 3096, 2840, 2842, 3117, 3116, 2860, 2861
2503, 3100, 3098, 2842, 2844, 3118, 3117, 2861, 2862
2504, 3102, 3100, 2844, 2846, 3119, 3118, 2862, 2863
2505, 3104, 3102, 2846, 2848, 3120, 3119, 2863, 2864
2506, 3105, 3106, 2850, 2849, 3121, 3122, 2866, 2865
2507, 3107, 3105, 2849, 2851, 3123, 3121, 2865, 2867
2508, 3108, 3107, 2851, 2852, 3124, 3123, 2867, 2868
2509, 3109, 3108, 2852, 2853, 3125, 3124, 2868, 2869
2510, 3110, 3109, 2853, 2854, 3126, 3125, 2869, 2870
2511, 3111, 3110, 2854, 2855, 3127, 3126, 2870, 2871
2512, 3112, 3111, 2855, 2856, 3128, 3127, 2871, 2872
2513, 3113, 3112, 2856, 2857, 3129, 3128, 2872, 2873
2514, 3114, 3113, 2857, 2858, 3130, 3129, 2873, 2874
2515, 3115, 3114, 2858, 2859, 3131, 3130, 2874, 2875
2516, 3116, 3115, 2859, 2860, 3132, 3131, 2875, 2876
2517, 3117, 3116, 2860, 2861, 3133, 3132, 2876, 2877
2518, 3118, 3117, 2861, 2862, 3134, 3133, 2877, 2878
2519, 3119, 3118, 2862, 2863, 3135, 3134, 2878, 2879
2520, 3120, 3119, 2863, 2864, 3136, 3135, 2879, 2880
2521, 3121, 3122, 2866, 2865, 3137, 3138, 2882, 2881
2522, 3123, 3121, 2865, 2867, 3139, 3137, 2881, 2883
2523, 3124, 3123, 2867, 2868, 3140, 3139, 2883, 2884
2524, 3125, 3124, 2868, 2869, 3141, 3140, 2884, 2885
2525, 3126, 3125, 2869, 2870, 3142, 3141, 2885, 2886
2526, 3127, 3126, 2870, 2871, 3143, 3142, 2886, 2887
2527, 3128, 3127, 2871, 2872, 3144, 3143, 2887, 2888
2528, 3129, 3128, 2872, 2873, 3145, 3144, 2888, 2889
2529, 3130, 3129, 2873, 2874, 3146, 3145, 2889, 2890
2530, 3131, 3130, 2874, 2875, 3147, 3146, 2890, 2891
2531, 3132, 3131, 2875, 2876, 3148, 3147, 2891, 2892
2532, 3133, 3132, 2876, 2877, 3149, 3148, 2892, 2893
2533, 3134, 3133, 2877, 2878, 3150, 3149, 2893, 2894
2534, 3135, 3134, 2878, 2879, 3151, 3150, 2894, 2895
2535, 3136, 3135, 2879, 2880, 3152, 3151, 2895, 2896
2536, 3137, 3138, 2882, 2881, 3153, 3154, 2898, 2897
2537, 3139, 3137, 2881, 2883, 3155, 3153, 2897, 2899
2538, 3140, 3139, 2883, 2884, 3156, 3155, 2899, 2900
2539, 3141, 3140, 2884, 2885, 3157, 3156, 2900, 2901
2540, 3142, 3141, 2885, 2886, 3158, 3157, 2901, 2902
2541, 3143, 3142, 2886, 2887, 3159, 3158, 2902, 2903
2542, 3144, 3143, 2887, 2888, 3160, 3159, 2903, 2904
2543, 3145, 3144, 2888, 2889, 3161, 3160, 2904, 2905
2544, 3146, 3145, 2889, 2890, 3162, 3161, 2905, 2906
2545, 3147, 3146, 2890, 2891, 3163, 3162, 2906, 2907
2546, 3148, 3147, 2891, 2892, 3164, 3163, 2907, 2908
2547, 3149, 3148, 2892, 2893, 3165, 3164, 2908, 2909
2548, 3150, 3149, 2893, 2894, 3166, 3165, 2909, 2910
2549, 3151, 3150, 2894, 2895, 3167, 3166, 2910, 2911
2550, 3152, 3151, 2895, 2896, 3168, 3167, 2911, 2912
2551, 3153, 3154, 2898, 2897, 3169, 3170, 2914, 2913
2552, 3155, 3153, 2897, 2899, 3171, 3169, 2913, 2915
2553, 3156, 3155, 2899, 2900, 3172, 3171, 2915, 2916
2554, 3157, 3156, 2900, 2901, 3173, 3172, 2916, 2917
2555, 3158, 3157, 2901, 2902, 3174, 3173, 2917, 2918
2556, 3159, 3158, 2902, 2903, 3175, 3174, 2918, 2919
2557, 3160, 3159, 2903, 2904, 3176, 3175, 2919, 2920
2558, 3161, 3160, 2904, 2905, 3177, 3176, 2920, 2921
2559, 3162, 3161, 2905, 2906, 3178, 3177, 2921, 2922
2560, 3163, 3162, 2906, 2907, 3179, 3178, 2922, 2923
2561, 3164, 3163, 2907, 2908, 3180, 3179, 2923, 2924
2562, 3165, 3164, 2908, 2909, 3181, 3180, 2924, 2925
2563, 3166, 3165, 2909, 2910, 3182, 3181, 2925, 2926
2564, 3167, 3166, 2910, 2911, 3183, 3182, 2926, 2927
2565, 3168, 3167, 2911, 2912, 3184, 3183, 2927, 2928
2566, 3169, 3170, 2914, 2913, 3185, 3186, 2930, 2929
2567, 3171, 3169, 2913, 2915, 3187, 3185, 2929, 2931
2568, 3172, 3171, 2915, 2916, 3188, 3187, 2931, 2932
2569, 3173, 3172, 2916, 2917, 3189, 3188, 2932, 2933
2570, 3174, 3173, 2917, 2918, 3190, 3189, 2933, 2934
2571, 3175, 3174, 2918, 2919, 3191, 3190, 2934, 2935
2572, 3176, 3175, 2919, 2920, 3192, 3191, 2935, 2936
2573, 3177, 3176, 2920, 2921, 3193, 3192, 2936, 2937
2574, 3178, 3177, 2921, 2922, 3194, 3193, 2937, 2938
2575, 3179, 3178, 2922, 2923, 3195, 3194, 2938, 2939
2576, 3180, 3179, 2923, 2924, 3196, 3195, 2939, 2940
2577, 3181, 3180, 2924, 2925, 3197, 3196, 2940, 2941
2578, 3182, 3181, 2925, 2926, 3198, 3197, 2941, 2942
2579, 3183, 3182, 2926, 2927, 3199, 3198, 2942, 2943
2580, 3184, 3183, 2927, 2928, 3200, 3199, 2943, 2944
2581, 3185, 3186, 2930, 2929, 3201, 3202, 2946, 2945
2582, 3187, 3185, 2929, 2931, 3203, 3201, 2945, 2947
2583, 3188, 3187, 2931, 2932, 3204, 3203, 2947, 2948
2584, 3189, 3188, 2932, 2933, 3205, 3204, 2948, 2949
2585, 3190, 3189, 2933, 2934, 3206, 3205, 2949, 2950
2586, 3191, 3190, 2934, 2935, 3207, 3206, 2950, 2951
2587, 3192, 3191, 2935, 2936, 3208, 3207, 2951, 2952
2588, 3193, 3192, 2936, 2937, 3209, 3208, 2952, 2953
2589, 3194, 3193, 2937, 2938, 3210, 3209, 2953, 2954
2590, 3195, 3194, 2938, 2939, 3211, 3210, 2954, 2955
2591, 3196, 3195, 2939, 2940, 3212, 3211, 2955, 2956
2592, 3197, 3196, 2940, 2941, 3213, 3212, 2956, 2957
2593, 3198, 3197, 2941, 2942, 3214, 3213, 2957, 2958
2594, 3199, 3198, 2942, 2943, 3215, 3214, 2958, 2959
2595, 3200, 3199, 2943, 2944, 3216, 3215, 2959, 2960
2596, 3201, 3202, 2946, 2945, 3217, 3218, 2962, 2961
2597, 3203, 3201, 2945, 2947, 3219, 3217, 2961, 2963
2598, 3204, 3203, 2947, 2948, 3220, 3219, 2963, 2964
2599, 3205, 3204, 2948, 2949, 3221, 3220, 2964, 2965
2600, 3206, 3205, 2949, 2950, 3222, 3221, 2965, 2966
2601, 3207, 3206, 2950, 2951, 3223, 3222, 2966, 2967
2602, 3208, 3207, 2951, 2952, 3224, 3223, 2967, 2968
2603, 3209, 3208, 2952, 2953, 3225, 3224, 2968, 2969
2604, 3210, 3209, 2953, 2954, 3226, 3225, 2969, 2970
2605, 3211, 3210, 2954, 2955, 3227, 3226, 2970, 2971
2606, 3212, 3211, 2955, 2956, 3228, 3227, 2971, 2972
2607, 3213, 3212, 2956, 2957, 3229, 3228, 2972, 2973
2608, 3214, 3213, 2957, 2958, 3230, 3229, 2973, 2974
2609, 3215, 3214, 2958, 2959, 3231, 3230, 2974, 2975
2610, 3216, 3215, 2959, 2960, 3232, 3231, 2975, 2976
2611, 3217, 3218, 2962, 2961, 3233, 3234, 2978, 2977
2612, 3219, 3217, 2961, 2963, 3235, 3233, 2977, 2979
2613, 3220, 3219, 2963, 2964, 3236, 3235, 2979, 2980
2614, 3221, 3220, 2964, 2965, 3237, 3236, 2980, 2981
2615, 3222, 3221, 2965, 2966, 3238, 3237, 2981, 2982
2616, 3223, 3222, 2966, 2967, 3239, 3238, 2982, 2983
2617, 3224, 3223, 2967, 2968, 3240, 3239, 2983, 2984
2618, 3225, 3224, 2968, 2969, 3241, 3240, 2984, 2985
2619, 3226, 3225, 2969, 2970, 3242, 3241, 2985, 2986
2620, 3227, 3226, 2970, 2971, 3243, 3242, 2986, 2987
2621, 3228, 3227, 2971, 2972, 3244, 3243, 2987, 2988
2622, 3229, 3228, 2972, 2973, 3245, 3244, 2988, 2989
2623, 3230, 3229, 2973, 2974, 3246, 3245, 2989, 2990
2624, 3231, 3230, 2974, 2975, 3247, 3246, 2990, 2991
2625, 3232, 3231, 2975, 2976, 3248, 3247, 2991, 2992
2626, 3233, 3234, 2978, 2977, 3249, 3250, 2994, 2993
2627, 3235, 3233, 2977, 2979, 3251, 3249, 2993, 2995
2628, 3236, 3235, 2979, 2980, 3252, 3251, 2995, 2996
2629, 3237, 3236, 2980, 2981, 3253, 3252, 2996, 2997
2630, 3238, 3237, 2981, 2982, 3254, 3253, 2997, 2998
2631, 3239, 3238, 2982, 2983, 3255, 3254, 2998, 2999
2632, 3240, 3239, 2983, 2984, 3256, 3255, 2999, 3000
2633, 3241, 3240, 2984, 2985, 3257, 3256, 3000, 3001
2634, 3242, 3241, 2985, 2986, 3258, 3257, 3001, 3002
2635, 3243, 3242, 2986, 2987, 3259, 3258, 3002, 3003
2636, 3244, 3243, 2987, 2988, 3260, 3259, 3003, 3004
2637, 3245, 3244, 2988, 2989, 3261, 3260, 3004, 3005
2638, 3246, 3245, 2989, 2990, 3262, 3261, 3005, 3006
2639, 3247, 3246, 2990, 2991, 3263, 3262, 3006, 3007
2640, 3248, 3247, 2991, 2992, 3264, 3263, 3007, 3008
2641, 3249, 3250, 2994, 2993, 3265, 3266, 3010, 3009
2642, 3251, 3249, 2993, 2995, 3267, 3265, 3009, 3011
2643, 3252, 3251, 2995, 2996, 3268, 3267, 3011, 3012
2644, 3253, 3252, 2996, 2997, 3269, 3268, 3012, 3013
2645, 3254, 3253, 2997, 2998, 3270, 3269, 3013, 3014
2646, 3255, 3254, 2998, 2999, 3271, 3270, 3014, 3015
2647, 3256, 3255, 2999, 3000, 3272, 3271, 3015, 3016
2648, 3257, 3256, 3000, 3001, 3273, 3272, 3016, 3017
2649, 3258, 3257, 3001, 3002, 3274, 3273, 3017, 3018
2650, 3259, 3258, 3002, 3003, 3275, 3274, 3018, 3019
2651, 3260, 3259, 3003, 3004, 3276, 3275, 3019, 3020
2652, 3261, 3260, 3004, 3005, 3277, 3276, 3020, 3021
2653, 3262, 3261, 3005, 3006, 3278, 3277, 3021, 3022
2654, 3263, 3262, 3006, 3007, 3279, 3278, 3022, 3023
2655, 3264, 3263, 3007, 3008, 3280, 3279, 3023, 3024
2656, 3265, 3266, 3010, 3009, 3281, 3282, 3026, 3025
2657, 3267, 3265, 3009, 3011, 3283, 3281, 3025, 3027
2658, 3268, 3267, 3011, 3012, 3284, 3283, 3027, 3028
2659, 3269, 3268, 3012, 3013, 3285, 3284, 3028, 3029
2660, 3270, 3269, 3013, 3014, 3286, 3285, 3029, 3030
2661, 3271, 3270, 3014, 3015, 3287, 3286, 3030, 3031
2662, 3272, 3271, 3015, 3016, 3288, 3287, 3031, 3032
2663, 3273, 3272, 3016, 3017, 3289, 3288, 3032, 3033
2664, 3274, 3273, 3017, 3018, 3290, 3289, 3033, 3034
2665, 3275, 3274, 3018, 3019, 3291, 3290, 3034, 3035
2666, 3276, 3275, 3019, 3020, 3292, 3291, 3035, 3036
2667, 3277, 3276, 3020, 3021, 3293, 3292, 3036, 3037
2668, 3278, 3277, 3021, 3022, 3294, 3293, 3037, 3038
2669, 3279, 3278, 3022, 3023, 3295, 3294, 3038, 3039
2670, 3280, 3279, 3023, 3024, 3296, 3295, 3039, 3040
2671, 3281, 3282, 3026, 3025, 3297, 3298, 3042, 3041
2672, 3283, 3281, 3025, 3027, 3299, 3297, 3041, 3043
2673, 3284, 3283, 3027, 3028, 3300, 3299, 3043, 3044
2674, 3285, 3284, 3028, 3029, 3301, 3300, 3044, 3045
2675, 3286, 3285, 3029, 3030, 3302, 3301, 3045, 3046
2676, 3287, 3286, 3030, 3031, 3303, 3302, 3046, 3047
2677, 3288, 3287, 3031, 3032, 3304, 3303, 3047, 3048
2678, 3289, 3288, 3032, 3033, 3305, 3304, 3048, 3049
2679, 3290, 3289, 3033, 3034, 3306, 3305, 3049, 3050
2680, 3291, 3290, 3034, 3035, 3307, 3306, 3050, 3051
2681, 3292, 3291, 3035, 3036, 3308, 3307, 3051, 3052
2682, 3293, 3292, 3036, 3037, 3309, 3308, 3052, 3053
2683, 3294, 3293, 3037, 3038, 3310, 3309, 3053, 3054
2684, 3295, 3294, 3038, 3039, 3311, 3310, 3054, 3055
2685, 3296, 3295, 3039, 3040, 3312, 3311, 3055, 3056
2686, 3297, 3298, 3042, 3041, 3313, 3314, 3058, 3057
2687, 3299, 3297, 3041, 3043, 3315, 3313, 3057, 3059
2688, 3300, 3299, 3043, 3044, 3316, 3315, 3059, 3060
2689, 3301, 3300, 3044, 3045, 3317, 3316, 3060, 3061
2690, 3302, 3301, 3045, 3046, 3318, 3317, 3061, 3062
2691, 3303, 3302, 3046, 3047, 3319, 3318, 3062, 3063
2692, 3304, 3303, 3047, 3048, 3320, 3319, 3063, 3064
2693, 3305, 3304, 3048, 3049, 3321, 3320, 3064, 3065
2694, 3306, 3305, 3049, 3050, 3322, 3321, 3065, 3066
2695, 3307, 3306, 3050, 3051, 3323, 3322, 3066, 3067
2696, 3308, 3307, 3051, 3052, 3324, 3323, 3067, 3068
2697, 3309, 3308, 3052, 3053, 3325, 3324, 3068, 3069
2698, 3310, 3309, 3053, 3054, 3326, 3325, 3069, 3070
2699, 3311, 3310, 3054, 3055, 3327, 3326, 3070, 3071
2700, 3312, 3311, 3055, 3056, 3328, 3327, 3071, 3072
2701, 3329, 3330, 3074, 3073, 3331, 3332, 3076, 3075
2702, 3333, 3329, 3073, 3077, 3334, 3331, 3075, 3078
2703, 3335, 3333, 3077, 3079, 3336, 3334, 3078, 3080
2704, 3337, 3335, 3079, 3081, 3338, 3336, 3080, 3082
2705, 3339, 3337, 3081, 3083, 3340, 3338, 3082, 3084
2706, 3341, 3339, 3083, 3085, 3342, 3340, 3084, 3086
2707, 3343, 3341, 3085, 3087, 3344, 3342, 3086, 3088
2708, 3345, 3343, 3087, 3089, 3346, 3344, 3088, 3090
2709, 3347, 3345, 3089, 3091, 3348, 3346, 3090, 3092
2710, 3349, 3347, 3091, 3093, 3350, 3348, 3092, 3094
2711, 3351, 3349, 3093, 3095, 3352, 3350, 3094, 3096
2712, 3353, 3351, 3095, 3097, 3354, 3352, 3096, 3098
2713, 3355, 3353, 3097, 3099, 3356, 3354, 3098, 3100
2714, 3357, 3355, 3099, 3101, 3358, 3356, 3100, 3102
2715, 3359, 3357, 3101, 3103, 3360, 3358, 3102, 3104
2716, 3331, 3332, 3076, 3075, 3361, 3362, 3106, 3105
2717, 3334, 3331, 3075, 3078, 3363, 3361, 3105, 3107
2718, 3336, 3334, 3078, 3080, 3364, 3363, 3107, 3108
2719, 3338, 3336, 3080, 3082, 3365, 3364, 3108, 3109
2720, 3340, 3338, 3082, 3084, 3366, 3365, 3109, 3110
2721, 3342, 3340, 3084, 3086, 3367, 3366, 3110, 3111
2722, 3344, 3342, 3086, 3088, 3368, 3367, 3111, 3112
2723, 3346, 3344, 3088, 3090, 3369, 3368, 3112, 3113
2724, 3348, 3346, 3090, 3092, 3370, 3369, 3113, 3114
2725, 3350, 3348, 3092, 3094, 3371, 3370, 3114, 3115
2726, 3352, 3350, 3094, 3096, 3372, 3371, 3115, 3116
2727, 3354, 3352, 3096, 3098, 3373, 3372, 3116, 3117
2728, 3356, 3354, 3098, 3100, 3374, 3373, 3117, 3118
2729, 3358, 3356, 3100, 3102, 3375, 3374, 3118, 3119
2730, 3360, 3358, 3102, 3104, 3376, 3375, 3119, 3120
2731, 3361, 3362, 3106, 3105, 3377, 3378, 3122, 3121
2732, 3363, 3361, 3105, 3107, 3379, 3377, 3121, 3123
2733, 3364, 3363, 3107, 3108, 3380, 3379, 3123, 3124
2734, 3365, 3364, 3108, 3109, 3381, 3380, 3124, 3125
2735, 3366, 3365, 3109, 3110, 3382, 3381, 3125, 3126
2736, 3367, 3366, 3110, 3111, 3383, 3382, 3126, 3127
2737, 3368, 3367, 3111, 3112, 3384, 3383, 3127, 3128
2738, 3369, 3368, 3112, 3113, 3385, 3384, 3128, 3129
2739, 3370, 3369, 3113, 3114, 3386, 3385, 3129, 3130
2740, 3371, 3370, 3114, 3115, 3387, 3386, 3130, 3131
2741, 3372, 3371, 3115, 3116, 3388, 3387, 3131, 3132
2742, 3373, 3372, 3116, 3117, 3389, 3388, 3132, 3133
2743, 3374, 3373, 3117, 3118, 3390, 3389, 3133, 3134
2744, 3375, 3374, 3118, 3119, 3391, 3390, 3134, 3135
2745, 3376, 3375, 3119, 3120, 3392, 3391, 3135, 3136
2746, 3377, 3378, 3122, 3121, 3393, 3394, 3138, 3137
2747, 3379, 3377, 3121, 3123, 3395, 3393, 3137, 3139
2748, 3380, 3379, 3123, 3124, 3396, 3395, 3139, 3140
2749, 3381, 3380, 3124, 3125, 3397, 3396, 3140, 3141
2750, 3382, 3381, 3125, 3126, 3398, 3397, 3141, 3142
2751, 3383, 3382, 3126, 3127, 3399, 3398, 3142, 3143
2752, 3384, 3383, 3127, 3128, 3400, 3399, 3143, 3144
2753, 3385, 3384, 3128, 3129, 3401, 3400, 3144, 3145
2754, 3386, 3385, 3129, 3130, 3402, 3401, 3145, 3146
2755, 3387, 3386, 3130, 3131, 3403, 3402, 3146, 3147
2756, 3388, 3387, 3131, 3132, 3404, 3403, 3147, 3148
2757, 3389, 3388, 3132, 3133, 3405, 3404, 3148, 3149
2758, 3390, 3389, 3133, 3134, 3406, 3405, 3149, 3150
2759, 3391, 3390, 3134, 3135, 3407, 3406, 3150, 3151
2760, 3392, 3391, 3135, 3136, 3408, 3407, 3151, 3152
2761, 3393, 3394, 3138, 3137, 3409, 3410, 3154, 3153
2762, 3395, 3393, 3137, 3139, 3411, 3409, 3153, 3155
2763, 3396, 3395, 3139, 3140, 3412, 3411, 3155, 3156
2764, 3397, 3396, 3140, 3141, 3413, 3412, 3156, 3157
2765, 3398, 3397, 3141, 3142, 3414, 3413, 3157, 3158
2766, 3399, 3398, 3142, 3143, 3415, 3414, 3158, 3159
2767, 3400, 3399, 3143, 3144, 3416, 3415, 3159, 3160
2768, 3401, 3400, 3144, 3145, 3417, 3416, 3160, 3161
2769, 3402, 3401, 3145, 3146, 3418, 3417, 3161, 3162
2770, 3403, 3402, 3146, 3147, 3419, 3418, 3162, 3163
2771, 3404, 3403, 3147, 3148, 3420, 3419, 3163, 3164
2772, 3405, 3404, 3148, 3149, 3421, 3420, 3164, 3165
2773, 3406, 3405, 3149, 3150, 3422, 3421, 3165, 3166
2774, 3407, 3406, 3150, 3151, 3423, 3422, 3166, 3167
2775, 3408, 3407, 3151, 3152, 3424, 3423, 3167, 3168
2776, 3409, 3410, 3154, 3153, 3425, 3426, 3170, 3169
2777, 3411, 3409, 3153, 3155, 3427, 3425, 3169, 3171
2778, 3412, 3411, 3155, 3156, 3428, 3427, 3171, 3172
2779, 3413, 3412, 3156, 3157, 3429, 3428, 3172, 3173
2780, 3414, 3413, 3157, 3158, 3430, 3429, 3173, 3174
2781, 3415, 3414, 3158, 3159, 3431, 3430, 3174, 3175
2782, 3416, 3415, 3159, 3160, 3432, 3431, 3175, 3176
2783, 3417, 3416, 3160, 3161, 3433, 3432, 3176, 3177
2784, 3418, 3417, 3161, 3162, 3434, 3433, 3177, 3178
2785, 3419, 3418, 3162, 3163, 3435, 3434, 3178, 3179
2786, 3420, 3419, 3163, 3164, 3436, 3435, 3179, 3180
2787, 3421, 3420, 3164, 3165, 3437, 3436, 3180, 3181
2788, 3422, 3421, 3165, 3166, 3438, 3437, 3181, 3182
2789, 3423, 3422, 3166, 3167, 3439, 3438, 3182, 3183
2790, 3424, 3423, 3167, 3168, 3440, 3439, 3183, 3184
2791, 3425, 3426, 3170, 3169, 3441, 3442, 3186, 3185
2792, 3427, 3425, 3169, 3171, 3443, 3441, 3185, 3187
2793, 3428, 3427, 3171, 3172, 3444, 3443, 3187, 3188
2794, 3429, 3428, 3172, 3173, 3445, 3444, 3188, 3189
2795, 3430, 3429, 3173, 3174, 3446, 3445, 3189, 3190
2796, 3431, 3430, 3174, 3175, 3447, 3446, 3190, 3191
2797, 3432, 3431, 3175, 3176, 3448, 3447, 3191, 3192
2798, 3433, 3432, 3176, 3177, 3449, 3448, 3192, 3193
2799, 3434, 3433, 3177, 3178, 3450, 3449, 3193, 3194
2800, 3435, 3434, 3178, 3179, 3451, 3450, 3194, 3195
2801, 3436, 3435, 3179, 3180, 3452, 3451, 3195, 3196
2802, 3437, 3436, 3180, 3181, 3453, 3452, 3196, 3197
2803, 3438, 3437, 3181, 3182, 3454, 3453, 3197, 3198
2804, 3439, 3438, 3182, 3183, 3455, 3454, 3198, 3199
2805, 3440, 3439, 3183, 3184, 3456, 3455, 3199, 3200
2806, 3441, 3442, 3186, 3185, 3457, 3458, 3202, 3201
2807, 3443, 3441, 3185, 3187, 3459, 3457, 3201, 3203
2808, 3444, 3443, 3187, 3188, 3460, 3459, 3203, 3204
2809, 3445, 3444, 3188, 3189, 3461, 3460, 3204, 3205
2810, 3446, 3445, 3189, 3190, 3462, 3461, 3205, 3206
2811, 3447, 3446, 3190, 3191, 3463, 3462, 3206, 3207
2812, 3448, 3447, 3191, 3192, 3464, 3463, 3207, 3208
2813, 3449, 3448, 3192, 3193, 3465, 3464, 3208, 3209
2814, 3450, 3449, 3193, 3194, 3466, 3465, 3209, 3210
2815, 3451, 3450, 3194, 3195, 3467, 3466, 3210, 3211
2816, 3452, 3451, 3195, 3196, 3468, 3467, 3211, 3212
2817, 3453, 3452, 3196, 3197, 3469, 3468, 3212, 3213
2818, 3454, 3453, 3197, 3198, 3470, 3469, 3213, 3214
2819, 3455, 3454, 3198, 3199, 3471, 3470, 3214, 3215
2820, 3456, 3455, 3199, 3200, 3472, 3471, 3215, 3216
2821, 3457, 3458, 3202, 3201, 3473, 3474, 3218, 3217
2822, 3459, 3457, 3201, 3203, 3475, 3473, 3217, 3219
2823, 3460, 3459, 3203, 3204, 3476, 3475, 3219, 3220
2824, 3461, 3460, 3204, 3205, 3477, 3476, 3220, 3221
2825, 3462, 3461, 3205, 3206, 3478, 3477, 3221, 3222
2826, 3463, 3462, 3206, 3207, 3479, 3478, 3222, 3223
2827, 3464, 3463, 3207, 3208, 3480, 3479, 3223, 3224
2828, 3465, 3464, 3208, 3209, 3481, 3480, 3224, 3225
2829, 3466, 3465, 3209, 3210, 3482, 3481, 3225, 3226
2830, 3467, 3466, 3210, 3211, 3483, 3482, 3226, 3227
2831, 3468, 3467, 3211, 3212, 3484, 3483, 3227, 3228
2832, 3469, 3468, 3212, 3213, 3485, 3484, 3228, 3229
2833, 3470, 3469, 3213, 3214, 3486, 3485, 3229, 3230
2834, 3471, 3470, 3214, 3215, 3487, 3486, 3230, 3231
2835, 3472, 3471, 3215, 3216, 3488, 3487, 3231, 3232
2836, 3473, 3474, 3218, 3217, 3489, 3490, 3234, 3233
2837, 3475, 3473, 3217, 3219, 3491, 3489, 3233, 3235
2838, 3476, 3475, 3219, 3220, 3492, 3491, 3235, 3236
2839, 3477, 3476, 3220, 3221, 3493, 3492, 3236, 3237
2840, 3478, 3477, 3221, 3222, 3494, 3493, 3237, 3238
2841, 3479, 3478, 3222, 3223, 3495, 3494, 3238, 3239
2842, 3480, 3479, 3223, 3224, 3496, 3495, 3239, 3240
2843, 3481, 3480, 3224, 3225, 3497, 3496, 3240, 3241
2844, 3482, 3481, 3225, 3226, 3498, 3497, 3241, 3242
2845, 3483, 3482, 3226, 3227, 3499, 3498, 3242, 3243
2846, 3484, 3483, 3227, 3228, 3500, 3499, 3243, 3244
2847, 3485, 3484, 3228, 3229, 3501, 3500, 3244, 3245
2848, 3486, 3485, 3229, 3230, 3502, 3501, 3245, 3246
2849, 3487, 3486, 3230, 3231, 3503, 3502, 3246, 3247
2850, 3488, 3487, 3231, 3232, 3504, 3503, 3247, 3248
2851, 3489, 3490, 3234, 3233, 3505, 3506, 3250, 3249
2852, 3491, 3489, 3233, 3235, 3507, 3505, 3249, 3251
2853, 3492, 3491, 3235, 3236, 3508, 3507, 3251, 3252
2854, 3493, 3492, 3236, 3237, 3509, 3508, 3252, 3253
2855, 3494, 3493, 3237, 3238, 3510, 3509, 3253, 3254
2856, 3495, 3494, 3238, 3239, 3511, 3510, 3254, 3255
2857, 3496, 3495, 3239, 3240, 3512, 3511, 3255, 3256
2858, 3497, 3496, 3240, 3241, 3513, 3512, 3256, 3257
2859, 3498, 3497, 3241, 3242, 3514, 3513, 3257, 3258
2860, 3499, 3498, 3242, 3243, 3515, 3514, 3258, 3259
2861, 3500, 3499, 3243, 3244, 3516, 3515, 3259, 3260
2862, 3501, 3500, 3244, 3245, 3517, 3516, 3260, 3261
2863, 3502, 3501, 3245, 3246, 3518, 3517, 3261, 3262
2864, 3503, 3502, 3246, 3247, 3519, 3518, 3262, 3263
2865, 3504, 3503, 3247, 3248, 3520, 3519, 3263, 3264
2866, 3505, 3506, 3250, 3249, 3521, 3522, 3266, 3265
2867, 3507, 3505, 3249, 3251, 3523, 3521, 3265, 3267
2868, 3508, 3507, 3251, 3252, 3524, 3523, 3267, 3268
2869, 3509, 3508, 3252, 3253, 3525, 3524, 3268, 3269
2870, 3510, 3509, 3253, 3254, 3526, 3525, 3269, 3270
2871, 3511, 3510, 3254, 3255, 3527, 3526, 3270, 3271
2872, 3512, 3511, 3255, 3256, 3528, 3527, 3271, 3272
2873, 3513, 3512, 3256, 3257, 3529, 3528, 3272, 3273
2874, 3514, 3513, 3257, 3258, 3530, 3529, 3273, 3274
2875, 3515, 3514, 3258, 3259, 3531, 3530, 3274, 3275
2876, 3516, 3515, 3259, 3260, 3532, 3531, 3275, 3276
2877, 3517, 3516, 3260, 3261, 3533, 3532, 3276, 3277
2878, 3518, 3517, 3261, 3262, 3534, 3533, 3277, 3278
2879, 3519, 3518, 3262, 3263, 3535, 3534, 3278, 3279
2880, 3520, 3519, 3263, 3264, 3536, 3535, 3279, 3280
2881, 3521, 3522, 3266, 3265, 3537, 3538, 3282, 3281
2882, 3523, 3521, 3265, 3267, 3539, 3537, 3281, 3283
2883, 3524, 3523, 3267, 3268, 3540, 3539, 3283, 3284
2884, 3525, 3524, 3268, 3269, 3541, 3540, 3284, 3285
2885, 3526, 3525, 3269, 3270, 3542, 3541, 3285, 3286
2886, 3527, 3526, 3270, 3271, 3543, 3542, 3286, 3287
2887, 3528, 3527, 3271, 3272, 3544, 3543, 3287, 3288
2888, 3529, 3528, 3272, 3273, 3545, 3544, 3288, 3289
2889, 3530, 3529, 3273, 3274, 3546, 3545, 3289, 3290
2890, 3531, 3530, 3274, 3275, 3547, 3546, 3290, 3291
2891, 3532, 3531, 3275, 3276, 3548, 3547, 3291, 3292
2892, 3533, 3532, 3276, 3277, 3549, 3548, 3292, 3293
2893, 3534, 3533, 3277, 3278, 3550, 3549, 3293, 3294
2894, 3535, 3534, 3278, 3279, 3551, 3550, 3294, 3295
2895, 3536, 3535, 3279, 3280, 3552, 3551, 3295, 3296
2896, 3537, 3538, 3282, 3281, 3553, 3554, 3298, 3297
2897, 3539, 3537, 3281, 3283, 3555, 3553, 3297, 3299
2898, 3540, 3539, 3283, 3284, 3556, 3555, 3299, 3300
2899, 3541, 3540, 3284, 3285, 3557, 3556, 3300, 3301
2900, 3542, 3541, 3285, 3286, 3558, 3557, 3301, 3302
2901, 3543, 3542, 3286, 3287, 3559, 3558, 3302, 3303
2902, 3544, 3543, 3287, 3288, 3560, 3559, 3303, 3304
2903, 3545, 3544, 3288, 3289, 3561, 3560, 3304, 3305
2904, 3546, 3545, 3289, 3290, 3562, 3561, 3305, 3306
2905, 3547, 3546, 3290, 3291, 3563, 3562, 3306, 3307
2906, 3548, 3547, 3291, 3292, 3564, 3563, 3307, 3308
2907, 3549, 3548, 3292, 3293, 3565, 3564, 3308, 3309
2908, 3550, 3549, 3293, 3294, 3566, 3565, 3309, 3310
2909, 3551, 3550, 3294, 3295, 3567, 3566, 3310, 3311
2910, 3552, 3551, 3295, 3296, 3568, 3567, 3311, 3312
2911, 3553, 3554, 3298, 3297, 3569, 3570, 3314, 3313
2912, 3555, 3553, 3297, 3299, 3571, 3569, 3313, 3315
2913, 3556, 3555, 3299, 3300, 3572, 3571, 3315, 3316
2914, 3557, 3556, 3300, 3301, 3573, 3572, 3316, 3317
2915, 3558, 3557, 3301, 3302, 3574, 3573, 3317, 3318
2916, 3559, 3558, 3302, 3303, 3575, 3574, 3318, 3319
2917, 3560, 3559, 3303, 3304, 3576, 3575, 3319, 3320
2918, 3561, 3560, 3304, 3305, 3577, 3576, 3320, 3321
2919, 3562, 3561, 3305, 3306, 3578, 3577, 3321, 3322
2920, 3563, 3562, 3306, 3307, 3579, 3578, 3322, 3323
2921, 3564, 3563, 3307, 3308, 3580, 3579, 3323, 3324
2922, 3565, 3564, 3308, 3309, 3581, 3580, 3324, 3325
2923, 3566, 3565, 3309, 3310, 3582, 3581, 3325, 3326
2924, 3567, 3566, 3310, 3311, 3583, 3582, 3326, 3327
2925, 3568, 3567, 3311, 3312, 3584, 3583, 3327, 3328
2926, 3585, 3586, 3330, 3329, 3587, 3588, 3332, 3331
2927, 3589, 3585, 3329, 3333, 3590, 3587, 3331, 3334
2928, 3591, 3589, 3333, 3335, 3592, 3590, 3334, 3336
2929, 3593, 3591, 3335, 3337, 3594, 3592, 3336, 3338
2930, 3595, 3593, 3337, 3339, 3596, 3594, 3338, 3340
2931, 3597, 3595, 3339, 3341, 3598, 3596, 3340, 3342
2932, 3599, 3597, 3341, 3343, 3600, 3598, 3342, 3344
2933, 3601, 3599, 3343, 3345, 3602, 3600, 3344, 3346
2934, 3603, 3601, 3345, 3347, 3604, 3602, 3346, 3348
2935, 3605, 3603, 3347, 3349, 3606, 3604, 3348, 3350
2936, 3607, 3605, 3349, 3351, 3608, 3606, 3350, 3352
2937, 3609, 3607, 3351, 3353, 3610, 3608, 3352, 3354
2938, 3611, 3609, 3353, 3355, 3612, 3610, 3354, 3356
2939, 3613, 3611, 3355, 3357, 3614, 3612, 3356, 3358
2940, 3615, 3613, 3357, 3359, 3616, 3614, 3358, 3360
2941, 3587, 3588, 3332, 3331, 3617, 3618, 3362, 3361
2942, 3590, 3587, 3331, 3334, 3619, 3617, 3361, 3363
2943, 3592, 3590, 3334, 3336, 3620, 3619, 3363, 3364
2944, 3594, 3592, 3336, 3338, 3621, 3620, 3364, 3365
2945, 3596, 3594, 3338, 3340, 3622, 3621, 3365, 3366
2946, 3598, 3596, 3340, 3342, 3623, 3622, 3366, 3367
2947, 3600, 3598, 3342, 3344, 3624, 3623, 3367, 3368
2948, 3602, 3600, 3344, 3346, 3625, 3624, 3368, 3369
2949, 3604, 3602, 3346, 3348, 3626, 3625, 3369, 3370
2950, 3606, 3604, 3348, 3350, 3627, 3626, 3370, 3371
2951, 3608, 3606, 3350, 3352, 3628, 3627, 3371, 3372
2952, 3610, 3608, 3352, 3354, 3629, 3628, 3372, 3373
2953, 3612, 3610, 3354, 3356, 3630, 3629, 3373, 3374
2954, 3614, 3612, 3356, 3358, 3631, 3630, 3374, 3375
2955, 3616, 3614, 3358, 3360, 3632, 3631, 3375, 3376
2956, 3617, 3618, 3362, 3361, 3633, 3634, 3378, 3377
2957, 3619, 3617, 3361, 3363, 3635, 3633, 3377, 3379
2958, 3620, 3619, 3363, 3364, 3636, 3635, 3379, 3380
2959, 3621, 3620, 3364, 3365, 3637, 3636, 3380, 3381
2960, 3622, 3621, 3365, 3366, 3638, 3637, 3381, 3382
2961, 3623, 3622, 3366, 3367, 3639, 3638, 3382, 3383
2962, 3624, 3623, 3367, 3368, 3640, 3639, 3383, 3384
2963, 3625, 3624, 3368, 3369, 3641, 3640, 3384, 3385
2964, 3626, 3625, 3369, 3370, 3642, 3641, 3385, 3386
2965, 3627, 3626, 3370, 3371, 3643, 3642, 3386, 3387
2966, 3628, 3627, 3371, 3372, 3644, 3643, 3387, 3388
2967, 3629, 3628, 3372, 3373, 3645, 3644, 3388, 3389
2968, 3630, 3629, 3373, 3374, 3646, 3645, 3389, 3390
2969, 3631, 3630, 3374, 3375, 3647, 3646, 3390, 3391
2970, 3632, 3631, 3375, 3376, 3648, 3647, 3391, 3392
2971, 3633, 3634, 3378, 3377, 3649, 3650, 3394, 3393
2972, 3635, 3633, 3377, 3379, 3651, 3649, 3393, 3395
2973, 3636, 3635, 3379, 3380, 3652, 3651, 3395, 3396
2974, 3637, 3636, 3380, 3381, 3653, 3652, 3396, 3397
2975, 3638, 3637, 3381, 3382, 3654, 3653, 3397, 3398
2976, 3639, 3638, 3382, 3383, 3655, 3654, 3398, 3399
2977, 3640, 3639, 3383, 3384, 3656, 3655, 3399, 3400
2978, 3641, 3640, 3384, 3385, 3657, 3656, 3400, 3401
2979, 3642, 3641, 3385, 3386, 3658, 3657, 3401, 3402
2980, 3643, 3642, 3386, 3387, 3659, 3658, 3402, 3403
2981, 3644, 3643, 3387, 3388, 3660, 3659, 3403, 3404
2982, 3645, 3644, 3388, 3389, 3661, 3660, 3404, 3405
2983, 3646, 3645, 3389, 3390, 3662, 3661, 3405, 3406
2984, 3647, 3646, 3390, 3391, 3663, 3662, 3406, 3407
2985, 3648, 3647, 3391, 3392, 3664, 3663, 3407, 3408
2986, 3649, 3650, 3394, 3393, 3665, 3666, 3410, 3409
2987, 3651, 3649, 3393, 3395, 3667, 3665, 3409, 3411
2988, 3652, 3651, 3395, 3396, 3668, 3667, 3411, 3412
2989, 3653, 3652, 3396, 3397, 3669, 3668, 3412, 3413
2990, 3654, 3653, 3397, 3398, 3670, 3669, 3413, 3414
2991, 3655, 3654, 3398, 3399, 3671, 3670, 3414, 3415
2992, 3656, 3655, 3399, 3400, 3672, 3671, 3415, 3416
2993, 3657, 3656, 3400, 3401, 3673, 3672, 3416, 3417
2994, 3658, 3657, 3401, 3402, 3674, 3673, 3417, 3418
2995, 3659, 3658, 3402, 3403, 3675, 3674, 3418, 3419
2996, 3660, 3659, 3403, 3404, 3676, 3675, 3419, 3420
2997, 3661, 3660, 3404, 3405, 3677, 3676, 3420, 3421
2998, 3662, 3661, 3405, 3406, 3678, 3677, 3421, 3422
2999, 3663, 3662, 3406, 3407, 3679, 3678, 3422, 3423
3000, 3664, 3663, 3407, 3408, 3680, 3679, 3423, 3424
3001, 3665, 3666, 3410, 3409, 3681, 3682, 3426, 3425
3002, 3667, 3665, 3409, 3411, 3683, 3681, 3425, 3427
3003, 3668, 3667, 3411, 3412, 3684, 3683, 3427, 3428
3004, 3669, 3668, 3412, 3413, 3685, 3684, 3428, 3429
3005, 3670, 3669, 3413, 3414, 3686, 3685, 3429, 3430
3006, 3671, 3670, 3414, 3415, 3687, 3686, 3430, 3431
3007, 3672, 3671, 3415, 3416, 3688, 3687, 3431, 3432
3008, 3673, 3672, 3416, 3417, 3689, 3688, 3432, 3433
3009, 3674, 3673, 3417, 3418, 3690, 3689, 3433, 3434
3010, 3675, 3674, 3418, 3419, 3691, 3690, 3434, 3435
3011, 3676, 3675, 3419, 3420, 3692, 3691, 3435, 3436
3012, 3677, 3676, 3420, 3421, 3693, 3692, 3436, 3437
3013, 3678, 3677, 3421, 3422, 3694, 3693, 3437, 3438
3014, 3679, 3678, 3422, 3423, 3695, 3694, 3438, 3439
3015, 3680, 3679, 3423, 3424, 3696, 3695, 3439, 3440
3016, 3681, 3682, 3426, 3425, 3697, 3698, 3442, 3441
3017, 3683, 3681, 3425, 3427, 3699, 3697, 3441, 3443
3018, 3684, 3683, 3427, 3428, 3700, 3699, 3443, 3444
3019, 3685, 3684, 3428, 3429, 3701, 3700, 3444, 3445
3020, 3686, 3685, 3429, 3430, 3702, 3701, 3445, 3446
3021, 3687, 3686, 3430, 3431, 3703, 3702, 3446, 3447
3022, 3688, 3687, 3431, 3432, 3704, 3703, 3447, 3448
3023, 3689, 3688, 3432, 3433, 3705, 3704, 3448, 3449
3024, 3690, 3689, 3433, 3434, 3706, 3705, 3449, 3450
3025, 3691, 3690, 3434, 3435, 3707, 3706, 3450, 3451
3026, 3692, 3691, 3435, 3436, 3708, 3707, 3451, 3452
3027, 3693, 3692, 3436, 3437, 3709, 3708, 3452, 3453
3028, 3694, 3693, 3437, 3438, 3710, 3709, 3453, 3454
3029, 3695, 3694, 3438, 3439, 3711, 3710, 3454, 3455
3030, 3696, 3695, 3439, 3440, 3712, 3711, 3455, 3456
3031, 3697, 3698, 3442, 3441, 3713, 3714, 3458, 3457
3032, 3699, 3697, 3441, 3443, 3715, 3713, 3457, 3459
3033, 3700, 3699, 3443, 3444, 3716, 3715, 3459, 3460
3034, 3701, 3700, 3444, 3445, 3717, 3716, 3460, 3461
3035, 3702, 3701, 3445, 3446, 3718, 3717, 3461, 3462
3036, 3703, 3702, 3446, 3447, 3719, 3718, 3462, 3463
3037, 3704, 3703, 3447, 3448, 3720, 3719, 3463, 3464
3038, 3705, 3704, 3448, 3449, 3721, 3720, 3464, 3465
3039, 3706, 3705, 3449, 3450, 3722, 3721, 3465, 3466
3040, 3707, 3706, 3450, 3451, 3723, 3722, 3466, 3467
3041, 3708, 3707, 3451, 3452, 3724, 3723, 3467, 3468
3042, 3709, 3708, 3452, 3453, 3725, 3724, 3468, 3469
3043, 3710, 3709, 3453, 3454, 3726, 3725, 3469, 3470
3044, 3711, 3710, 3454, 3455, 3727, 3726, 3470, 3471
3045, 3712, 3711, 3455, 3456, 3728, 3727, 3471, 3472
3046, 3713, 3714, 3458, 3457, 3729, 3730, 3474, 3473
3047, 3715, 3713, 3457, 3459, 3731, 3729, 3473, 3475
3048, 3716, 3715, 3459, 3460, 3732, 3731, 3475, 3476
3049, 3717, 3716, 3460, 3461, 3733, 3732, 3476, 3477
3050, 3718, 3717, 3461, 3462, 3734, 3733, 3477, 3478
3051, 3719, 3718, 3462, 3463, 3735, 3734, 3478, 3479
3052, 3720, 3719, 3463, 3464, 3736, 3735, 3479, 3480
3053, 3721, 3720, 3464, 3465, 3737, 3736, 3480, 3481
3054, 3722, 3721, 3465, 3466, 3738, 3737, 3481, 3482
3055, 3723, 3722, 3466, 3467, 3739, 3738, 3482, 3483
3056, 3724, 3723, 3467, 3468, 3740, 3739, 3483, 3484
3057, 3725, 3724, 3468, 3469, 3741, 3740, 3484, 3485
3058, 3726, 3725, 3469, 3470, 3742, 3741, 3485, 3486
3059, 3727, 3726, 3470, 3471, 3743, 3742, 3486, 3487
3060, 3728, 3727, 3471, 3472, 3744, 3743, 3487, 3488
3061, 3729, 3730, 3474, 3473, 3745, 3746, 3490, 3489
3062, 3731, 3729, 3473, 3475, 3747, 3745, 3489, 3491
3063, 3732, 3731, 3475, 3476, 3748, 3747, 3491, 3492
3064, 3733, 3732, 3476, 3477, 3749, 3748, 3492, 3493
3065, 3734, 3733, 3477, 3478, 3750, 3749, 3493, 3494
3066, 3735, 3734, 3478, 3479, 3751, 3750, 3494, 3495
3067, 3736, 3735, 3479, 3480, 3752, 3751, 3495, 3496
3068, 3737, 3736, 3480, 3481, 3753, 3752, 3496, 3497
3069, 3738, 3737, 3481, 3482, 3754, 3753, 3497, 3498
3070, 3739, 3738, 3482, 3483, 3755, 3754, 3498, 3499
3071, 3740, 3739, 3483, 3484, 3756, 3755, 3499, 3500
3072, 3741, 3740, 3484, 3485, 3757, 3756, 3500, 3501
3073, 3742, 3741, 3485, 3486, 3758, 3757, 3501, 3502
3074, 3743, 3742, 3486, 3487, 3759, 3758, 3502, 3503
3075, 3744, 3743, 3487, 3488, 3760, 3759, 3503, 3504
3076, 3745, 3746, 3490, 3489, 3761, 3762, 3506, 3505
3077, 3747, 3745, 3489, 3491, 3763, 3761, 3505, 3507
3078, 3748, 3747, 3491, 3492, 3764, 3763, 3507, 3508
3079, 3749, 3748, 3492, 3493, 3765, 3764, 3508, 3509
3080, 3750, 3749, 3493, 3494, 3766, 3765, 3509, 3510
3081, 3751, 3750, 3494, 3495, 3767, 3766, 3510, 3511
3082, 3752, 3751, 3495, 3496, 3768, 3767, 3511, 3512
3083, 3753, 3752, 3496, 3497, 3769, 3768, 3512, 3513
3084, 3754, 3753, 3497, 3498, 3770, 3769, 3513, 3514
3085, 3755, 3754, 3498, 3499, 3771, 3770, 3514, 3515
3086, 3756, 3755, 3499, 3500, 3772, 3771, 3515, 3516
3087, 3757, 3756, 3500, 3501, 3773, 3772, 3516, 3517
3088, 3758, 3757, 3501, 3502, 3774, 3773, 3517, 3518
3089, 3759, 3758, 3502, 3503, 3775, 3774, 3518, 3519
3090, 3760, 3759, 3503, 3504, 3776, 3775, 3519, 3520
3091, 3761, 3762, 3506, 3505, 3777, 3778, 3522, 3521
3092, 3763, 3761, 3505, 3507, 3779, 3777, 3521, 3523
3093, 3764, 3763, 3507, 3508, 3780, 3779, 3523, 3524
3094, 3765, 3764, 3508, 3509, 3781, 3780, 3524, 3525
3095, 3766, 3765, 3509, 3510, 3782, 3781, 3525, 3526
3096, 3767, 3766, 3510, 3511, 3783, 3782, 3526, 3527
3097, 3768, 3767, 3511, 3512, 3784, 3783, 3527, 3528
3098, 3769, 3768, 3512, 3513, 3785, 3784, 3528, 3529
3099, 3770, 3769, 3513, 3514, 3786, 3785, 3529, 3530
3100, 3771, 3770, 3514, 3515, 3787, 3786, 3530, 3531
3101, 3772, 3771, 3515, 3516, 3788, 3787, 3531, 3532
3102, 3773, 3772, 3516, 3517, 3789, 3788, 3532, 3533
3103, 3774, 3773, 3517, 3518, 3790, 3789, 3533, 3534
3104, 3775, 3774, 3518, 3519, 3791, 3790, 3534, 3535
3105, 3776, 3775, 3519, 3520, 3792, 3791, 3535, 3536
3106, 3777, 3778, 3522, 3521, 3793, 3794, 3538, 3537
3107, 3779, 3777, 3521, 3523, 3795, 3793, 3537, 3539
3108, 3780, 3779, 3523, 3524, 3796, 3795, 3539, 3540
3109, 3781, 3780, 3524, 3525, 3797, 3796, 3540, 3541
3110, 3782, 3781, 3525, 3526, 3798, 3797, 3541, 3542
3111, 3783, 3782, 3526, 3527, 3799, 3798, 3542, 3543
3112, 3784, 3783, 3527, 3528, 3800, 3799, 3543, 3544
3113, 3785, 3784, 3528, 3529, 3801, 3800, 3544, 3545
3114, 3786, 3785, 3529, 3530, 3802, 3801, 3545, 3546
3115, 3787, 3786, 3530, 3531, 3803, 3802, 3546, 3547
3116, 3788, 3787, 3531, 3532, 3804, 3803, 3547, 3548
3117, 3789, 3788, 3532, 3533, 3805, 3804, 3548, 3549
3118, 3790, 3789, 3533, 3534, 3806, 3805, 3549, 3550
3119, 3791, 3790, 3534, 3535, 3807, 3806, 3550, 3551
3120, 3792, 3791, 3535, 3536, 3808, 3807, 3551, 3552
3121, 3793, 3794, 3538, 3537, 3809, 3810, 3554, 3553
3122, 3795, 3793, 3537, 3539, 3811, 3809, 3553, 3555
3123, 3796, 3795, 3539, 3540, 3812, 3811, 3555, 3556
3124, 3797, 3796, 3540, 3541, 3813, 3812, 3556, 3557
3125, 3798, 3797, 3541, 3542, 3814, 3813, 3557, 3558
3126, 3799, 3798, 3542, 3543, 3815, 3814, 3558, 3559
3127, 3800, 3799, 3543, 3544, 3816, 3815, 3559, 3560
3128, 3801, 3800, 3544, 3545, 3817, 3816, 3560, 3561
3129, 3802, 3801, 3545, 3546, 3818, 3817, 3561, 3562
3130, 3803, 3802, 3546, 3547, 3819, 3818, 3562, 3563
3131, 3804, 3803, 3547, 3548, 3820, 3819, 3563, 3564
3132, 3805, 3804, 3548, 3549, 3821, 3820, 3564, 3565
3133, 3806, 3805, 3549, 3550, 3822, 3821, 3565, 3566
3134, 3807, 3806, 3550, 3551, 3823, 3822, 3566, 3567
3135, 3808, 3807, 3551, 3552, 3824, 3823, 3567, 3568
3136, 3809, 3810, 3554, 3553, 3825, 3826, 3570, 3569
3137, 3811, 3809, 3553, 3555, 3827, 3825, 3569, 3571
3138, 3812, 3811, 3555, 3556, 3828, 3827, 3571, 3572
3139, 3813, 3812, 3556, 3557, 3829, 3828, 3572, 3573
3140, 3814, 3813, 3557, 3558, 3830, 3829, 3573, 3574
3141, 3815, 3814, 3558, 3559, 3831, 3830, 3574, 3575
3142, 3816, 3815, 3559, 3560, 3832, 3831, 3575, 3576
3143, 3817, 3816, 3560, 3561, 3833, 3832, 3576, 3577
3144, 3818, 3817, 3561, 3562, 3834, 3833, 3577, 3578
3145, 3819, 3818, 3562, 3563, 3835, 3834, 3578, 3579
3146, 3820, 3819, 3563, 3564, 3836, 3835, 3579, 3580
3147, 3821, 3820, 3564, 3565, 3837, 3836, 3580, 3581
3148, 3822, 3821, 3565, 3566, 3838, 3837, 3581, 3582
3149, 3823, 3822, 3566, 3567, 3839, 3838, 3582, 3583
3150, 3824, 3823, 3567, 3568, 3840, 3839, 3583, 3584
3151, 3841, 3842, 3586, 3585, 3843, 3844, 3588, 3587
3152, 3845, 3841, 3585, 3589, 3846, 3843, 3587, 3590
3153, 3847, 3845, 3589, 3591, 3848, 3846, 3590, 3592
3154, 3849, 3847, 3591, 3593, 3850, 3848, 3592, 3594
3155, 3851, 3849, 3593, 3595, 3852, 3850, 3594, 3596
3156, 3853, 3851, 3595, 3597, 3854, 3852, 3596, 3598
3157, 3855, 3853, 3597, 3599, 3856, 3854, 3598, 3600
3158, 3857, 3855, 3599, 3601, 3858, 3856, 3600, 3602
3159, 3859, 3857, 3601, 3603, 3860, 3858, 3602, 3604
3160, 3861, 3859, 3603, 3605, 3862, 3860, 3604, 3606
3161, 3863, 3861, 3605, 3607, 3864, 3862, 3606, 3608
3162, 3865, 3863, 3607, 3609, 3866, 3864, 3608, 3610
3163, 3867, 3865, 3609, 3611, 3868, 3866, 3610, 3612
3164, 3869, 3867, 3611, 3613, 3870, 3868, 3612, 3614
3165, 3871, 3869, 3613, 3615, 3872, 3870, 3614, 3616
3166, 3843, 3844, 3588, 3587, 3873, 3874, 3618, 3617
3167, 3846, 3843, 3587, 3590, 3875, 3873, 3617, 3619
3168, 3848, 3846, 3590, 3592, 3876, 3875, 3619, 3620
3169, 3850, 3848, 3592, 3594, 3877, 3876, 3620, 3621
3170, 3852, 3850, 3594, 3596, 3878, 3877, 3621, 3622
3171, 3854, 3852, 3596, 3598, 3879, 3878, 3622, 3623
3172, 3856, 3854, 3598, 3600, 3880, 3879, 3623, 3624
3173, 3858, 3856, 3600, 3602, 3881, 3880, 3624, 3625
3174, 3860, 3858, 3602, 3604, 3882, 3881, 3625, 3626
3175, 3862, 3860, 3604, 3606, 3883, 3882, 3626, 3627
3176, 3864, 3862, 3606, 3608, 3884, 3883, 3627, 3628
3177, 3866, 3864, 3608, 3610, 3885, 3884, 3628, 3629
3178, 3868, 3866, 3610, 3612, 3886, 3885, 3629, 3630
3179, 3870, 3868, 3612, 3614, 3887, 3886, 3630, 3631
3180, 3872, 3870, 3614, 3616, 3888, 3887, 3631, 3632
3181, 3873, 3874, 3618, 3617, 3889, 3890, 3634, 3633
3182, 3875, 3873, 3617, 3619, 3891, 3889, 3633, 3635
3183, 3876, 3875, 3619, 3620, 3892, 3891, 3635, 3636
3184, 3877, 3876, 3620, 3621, 3893, 3892, 3636, 3637
3185, 3878, 3877, 3621, 3622, 3894, 3893, 3637, 3638
3186, 3879, 3878, 3622, 3623, 3895, 3894, 3638, 3639
3187, 3880, 3879, 3623, 3624, 3896, 3895, 3639, 3640
3188, 3881, 3880, 3624, 3625, 3897, 3896, 3640, 3641
3189, 3882, 3881, 3625, 3626, 3898, 3897, 3641, 3642
3190, 3883, 3882, 3626, 3627, 3899, 3898, 3642, 3643
3191, 3884, 3883, 3627, 3628, 3900, 3899, 3643, 3644
3192, 3885, 3884, 3628, 3629, 3901, 3900, 3644, 3645
3193, 3886, 3885, 3629, 3630, 3902, 3901, 3645, 3646
3194, 3887, 3886, 3630, 3631, 3903, 3902, 3646, 3647
3195, 3888, 3887, 3631, 3632, 3904, 3903, 3647, 3648
3196, 3889, 3890, 3634, 3633, 3905, 3906, 3650, 3649
3197, 3891, 3889, 3633, 3635, 3907, 3905, 3649, 3651
3198, 3892, 3891, 3635, 3636, 3908, 3907, 3651, 3652
3199, 3893, 3892, 3636, 3637, 3909, 3908, 3652, 3653
3200, 3894, 3893, 3637, 3638, 3910, 3909, 3653, 3654
3201, 3895, 3894, 3638, 3639, 3911, 3910, 3654, 3655
3202, 3896, 3895, 3639, 3640, 3912, 3911, 3655, 3656
3203, 3897, 3896, 3640, 3641, 3913, 3912, 3656, 3657
3204, 3898, 3897, 3641, 3642, 3914, 3913, 3657, 3658
3205, 3899, 3898, 3642, 3643, 3915, 3914, 3658, 3659
3206, 3900, 3899, 3643, 3644, 3916, 3915, 3659, 3660
3207, 3901, 3900, 3644, 3645, 3917, 3916, 3660, 3661
3208, 3902, 3901, 3645, 3646, 3918, 3917, 3661, 3662
3209, 3903, 3902, 3646, 3647, 3919, 3918, 3662, 3663
3210, 3904, 3903, 3647, 3648, 3920, 3919, 3663, 3664
3211, 3905, 3906, 3650, 3649, 3921, 3922, 3666, 3665
3212, 3907, 3905, 3649, 3651, 3923, 3921, 3665, 3667
3213, 3908, 3907, 3651, 3652, 3924, 3923, 3667, 3668
3214, 3909, 3908, 3652, 3653, 3925, 3924, 3668, 3669
3215, 3910, 3909, 3653, 3654, 3926, 3925, 3669, 3670
3216, 3911, 3910, 3654, 3655, 3927, 3926, 3670, 3671
3217, 3912, 3911, 3655, 3656, 3928, 3927, 3671, 3672
3218, 3913, 3912, 3656, 3657, 3929, 3928, 3672, 3673
3219, 3914, 3913, 3657, 3658, 3930, 3929, 3673, 3674
3220, 3915, 3914, 3658, 3659, 3931, 3930, 3674, 3675
3221, 3916, 3915, 3659, 3660, 3932, 3931, 3675, 3676
3222, 3917, 3916, 3660, 3661, 3933, 3932, 3676, 3677
3223, 3918, 3917, 3661, 3662, 3934, 3933, 3677, 3678
3224, 3919, 3918, 3662, 3663, 3935, 3934, 3678, 3679
3225, 3920, 3919, 3663, 3664, 3936, 3935, 3679, 3680
3226, 3921, 3922, 3666, 3665, 3937, 3938, 3682, 3681
3227, 3923, 3921, 3665, 3667, 3939, 3937, 3681, 3683
3228, 3924, 3923, 3667, 3668, 3940, 3939, 3683, 3684
3229, 3925, 3924, 3668, 3669, 3941, 3940, 3684, 3685
3230, 3926, 3925, 3669, 3670, 3942, 3941, 3685, 3686
3231, 3927, 3926, 3670, 3671, 3943, 3942, 3686, 3687
3232, 3928, 3927, 3671, 3672, 3944, 3943, 3687, 3688
3233, 3929, 3928, 3672, 3673, 3945, 3944, 3688, 3689
3234, 3930, 3929, 3673, 3674, 3946, 3945, 3689, 3690
3235, 3931, 3930, 3674, 3675, 3947, 3946, 3690, 3691
3236, 3932, 3931, 3675, 3676, 3948, 3947, 3691, 3692
3237, 3933, 3932, 3676, 3677, 3949, 3948, 3692, 3693
3238, 3934, 3933, 3677, 3678, 3950, 3949, 3693, 3694
3239, 3935, 3934, 3678, 3679, 3951, 3950, 3694, 3695
3240, 3936, 3935, 3679, 3680, 3952, 3951, 3695, 3696
3241, 3937, 3938, 3682, 3681, 3953, 3954, 3698, 3697
3242, 3939, 3937, 3681, 3683, 3955, 3953, 3697, 3699
3243, 3940, 3939, 3683, 3684, 3956, 3955, 3699, 3700
3244, 3941, 3940, 3684, 3685, 3957, 3956, 3700, 3701
3245, 3942, 3941, 3685, 3686, 3958, 3957, 3701, 3702
3246, 3943, 3942, 3686, 3687, 3959, 3958, 3702, 3703
3247, 3944, 3943, 3687, 3688, 3960, 3959, 3703, 3704
3248, 3945, 3944, 3688, 3689, 3961, 3960, 3704, 3705
3249, 3946, 3945, 3689, 3690, 3962, 3961, 3705, 3706
3250, 3947, 3946, 3690, 3691, 3963, 3962, 3706, 3707
3251, 3948, 3947, 3691, 3692, 3964, 3963, 3707, 3708
3252, 3949, 3948, 3692, 3693, 3965, 3964, 3708, 3709
3253, 3950, 3949, 3693, 3694, 3966, 3965, 3709, 3710
3254, 3951, 3950, 3694, 3695, 3967, 3966, 3710, 3711
3255, 3952, 3951, 3695, 3696, 3968, 3967, 3711, 3712
3256, 3953, 3954, 3698, 3697, 3969, 3970, 3714, 3713
3257, 3955, 3953, 3697, 3699, 3971, 3969, 3713, 3715
3258, 3956, 3955, 3699, 3700, 3972, 3971, 3715, 3716
3259, 3957, 3956, 3700, 3701, 3973, 3972, 3716, 3717
3260, 3958, 3957, 3701, 3702, 3974, 3973, 3717, 3718
3261, 3959, 3958, 3702, 3703, 3975, 3974, 3718, 3719
3262, 3960, 3959, 3703, 3704, 3976, 3975, 3719, 3720
3263, 3961, 3960, 3704, 3705, 3977, 3976, 3720, 3721
3264, 3962, 3961, 3705, 3706, 3978, 3977, 3721, 3722
3265, 3963, 3962, 3706, 3707, 3979, 3978, 3722, 3723
3266, 3964, 3963, 3707, 3708, 3980, 3979, 3723, 3724
3267, 3965, 3964, 3708, 3709, 3981, 3980, 3724, 3725
3268, 3966, 3965, 3709, 3710, 3982, 3981, 3725, 3726
3269, 3967, 3966, 3710, 3711, 3983, 3982, 3726, 3727
3270, 3968, 3967, 3711, 3712, 3984, 3983, 3727, 3728
3271, 3969, 3970, 3714, 3713, 3985, 3986, 3730, 3729
3272, 3971, 3969, 3713, 3715, 3987, 3985, 3729, 3731
3273, 3972, 3971, 3715, 3716, 3988, 3987, 3731, 3732
3274, 3973, 3972, 3716, 3717, 3989, 3988, 3732, 3733
3275, 3974, 3973, 3717, 3718, 3990, 3989, 3733, 3734
3276, 3975, 3974, 3718, 3719, 3991, 3990, 3734, 3735
3277, 3976, 3975, 3719, 3720, 3992, 3991, 3735, 3736
3278, 3977, 3976, 3720, 3721, 3993, 3992, 3736, 3737
3279, 3978, 3977, 3721, 3722, 3994, 3993, 3737, 3738
3280, 3979, 3978, 3722, 3723, 3995, 3994, 3738, 3739
3281, 3980, 3979, 3723, 3724, 3996, 3995, 3739, 3740
3282, 3981, 3980, 3724, 3725, 3997, 3996, 3740, 3741
3283, 3982, 3981, 3725, 3726, 3998, 3997, 3741, 3742
3284, 3983, 3982, 3726, 3727, 3999, 3998, 3742, 3743
3285, 3984, 3983, 3727, 3728, 4000, 3999, 3743, 3744
3286, 3985, 3986, 3730, 3729, 4001, 4002, 3746, 3745
3287, 3987, 3985, 3729, 3731, 4003, 4001, 3745, 3747
3288, 3988, 3987, 3731, 3732, 4004, 4003, 3747, 3748
3289, 3989, 3988, 3732, 3733, 4005, 4004, 3748, 3749
3290, 3990, 3989, 3733, 3734, 4006, 4005, 3749, 3750
3291, 3991, 3990, 3734, 3735, 4007, 4006, 3750, 3751
3292, 3992, 3991, 3735, 3736, 4008, 4007, 3751, 3752
3293, 3993, 3992, 3736, 3737, 4009, 4008, 3752, 3753
3294, 3994, 3993, 3737, 3738, 4010, 4009, 3753, 3754
3295, 3995, 3994, 3738, 3739, 4011, 4010, 3754, 3755
3296, 3996, 3995, 3739, 3740, 4012, 4011, 3755, 3756
3297, 3997, 3996, 3740, 3741, 4013, 4012, 3756, 3757
3298, 3998, 3997, 3741, 3742, 4014, 4013, 3757, 3758
3299, 3999, 3998, 3742, 3743, 4015, 4014, 3758, 3759
3300, 4000, 3999, 3743, 3744, 4016, 4015, 3759, 3760
3301, 4001, 4002, 3746, 3745, 4017, 4018, 3762, 3761
3302, 4003, 4001, 3745, 3747, 4019, 4017, 3761, 3763
3303, 4004, 4003, 3747, 3748, 4020, 4019, 3763, 3764
3304, 4005, 4004, 3748, 3749, 4021, 4020, 3764, 3765
3305, 4006, 4005, 3749, 3750, 4022, 4021, 3765, 3766
3306, 4007, 4006, 3750, 3751, 4023, 4022, 3766, 3767
3307, 4008, 4007, 3751, 3752, 4024, 4023, 3767, 3768
3308, 4009, 4008, 3752, 3753, 4025, 4024, 3768, 3769
3309, 4010, 4009, 3753, 3754, 4026, 4025, 3769, 3770
3310, 4011, 4010, 3754, 3755, 4027, 4026, 3770, 3771
3311, 4012, 4011, 3755, 3756, 4028, 4027, 3771, 3772
3312, 4013, 4012, 3756, 3757, 4029, 4028, 3772, 3773
3313, 4014, 4013, 3757, 3758, 4030, 4029, 3773, 3774
3314, 4015, 4014, 3758, 3759, 4031, 4030, 3774, 3775
3315, 4016, 4015, 3759, 3760, 4032, 4031, 3775, 3776
3316, 4017, 4018, 3762, 3761, 4033, 4034, 3778, 3777
3317, 4019, 4017, 3761, 3763, 4035, 4033, 3777, 3779
3318, 4020, 4019, 3763, 3764, 4036, 4035, 3779, 3780
3319, 4021, 4020, 3764, 3765, 4037, 4036, 3780, 3781
3320, 4022, 4021, 3765, 3766, 4038, 4037, 3781, 3782
3321, 4023, 4022, 3766, 3767, 4039, 4038, 3782, 3783
3322, 4024, 4023, 3767, 3768, 4040, 4039, 3783, 3784
3323, 4025, 4024, 3768, 3769, 4041, 4040, 3784, 3785
3324, 4026, 4025, 3769, 3770, 4042, 4041, 3785, 3786
3325, 4027, 4026, 3770, 3771, 4043, 4042, 3786, 3787
3326, 4028, 4027, 3771, 3772, 4044, 4043, 3787, 3788
3327, 4029, 4028, 3772, 3773, 4045, 4044, 3788, 3789
3328, 4030, 4029, 3773, 3774, 4046, 4045, 3789, 3790
3329, 4031, 4030, 3774, 3775, 4047, 4046, 3790, 3791
3330, 4032, 4031, 3775, 3776, 4048, 4047, 3791, 3792
3331, 4033, 4034, 3778, 3777, 4049, 4050, 3794, 3793
3332, 4035, 4033, 3777, 3779, 4051, 4049, 3793, 3795
3333, 4036, 4035, 3779, 3780, 4052, 4051, 3795, 3796
3334, 4037, 4036, 3780, 3781, 4053, 4052, 3796, 3797
3335, 4038, 4037, 3781, 3782, 4054, 4053, 3797, 3798
3336, 4039, 4038, 3782, 3783, 4055, 4054, 3798, 3799
3337, 4040, 4039, 3783, 3784, 4056, 4055, 3799, 3800
3338, 4041, 4040, 3784, 3785, 4057, 4056, 3800, 3801
3339, 4042, 4041, 3785, 3786, 4058, 4057, 3801, 3802
3340, 4043, 4042, 3786, 3787, 4059, 4058, 3802, 3803
3341, 4044, 4043, 3787, 3788, 4060, 4059, 3803, 3804
3342, 4045, 4044, 3788, 3789, 4061, 4060, 3804, 3805
3343, 4046, 4045, 3789, 3790, 4062, 4061, 3805, 3806
3344, 4047, 4046, 3790, 3791, 4063, 4062, 3806, 3807
3345, 4048, 4047, 3791, 3792, 4064, 4063, 3807, 3808
3346, 4049, 4050, 3794, 3793, 4065, 4066, 3810, 3809
3347, 4051, 4049, 3793, 3795, 4067, 4065, 3809, 3811
3348, 4052, 4051, 3795, 3796, 4068, 4067, 3811, 3812
3349, 4053, 4052, 3796, 3797, 4069, 4068, 3812, 3813
3350, 4054, 4053, 3797, 3798, 4070, 4069, 3813, 3814
3351, 4055, 4054, 3798, 3799, 4071, 4070, 3814, 3815
3352, 4056, 4055, 3799, 3800, 4072, 4071, 3815, 3816
3353, 4057, 4056, 3800, 3801, 4073, 4072, 3816, 3817
3354, 4058, 4057, 3801, 3802, 4074, 4073, 3817, 3818
3355, 4059, 4058, 3802, 3803, 4075, 4074, 3818, 3819
3356, 4060, 4059, 3803, 3804, 4076, 4075, 3819, 3820
3357, 4061, 4060, 3804, 3805, 4077, 4076, 3820, 3821
3358, 4062, 4061, 3805, 3806, 4078, 4077, 3821, 3822
3359, 4063, 4062, 3806, 3807, 4079, 4078, 3822, 3823
3360, 4064, 4063, 3807, 3808, 4080, 4079, 3823, 3824
3361, 4065, 4066, 3810, 3809, 4081, 4082, 3826, 3825
3362, 4067, 4065, 3809, 3811, 4083, 4081, 3825, 3827
3363, 4068, 4067, 3811, 3812, 4084, 4083, 3827, 3828
3364, 4069, 4068, 3812, 3813, 4085, 4084, 3828, 3829
3365, 4070, 4069, 3813, 3814, 4086, 4085, 3829, 3830
3366, 4071, 4070, 3814, 3815, 4087, 4086, 3830, 3831
3367, 4072, 4071, 3815, 3816, 4088, 4087, 3831, 3832
3368, 4073, 4072, 3816, 3817, 4089, 4088, 3832, 3833
3369, 4074, 4073, 3817, 3818, 4090, 4089, 3833, 3834
3370, 4075, 4074, 3818, 3819, 4091, 4090, 3834, 3835
3371, 4076, 4075, 3819, 3820, 4092, 4091, 3835, 3836
3372, 4077, 4076, 3820, 3821, 4093, 4092, 3836, 3837
3373, 4078, 4077, 3821, 3822, 4094, 4093, 3837, 3838
3374, 4079, 4078, 3822, 3823, 4095, 4094, 3838, 3839
3375, 4080, 4079, 3823, 3824, 4096, 4095, 3839, 3840
*ELSET, ELSET=GRAIN1_SET
9, 10, 11, 12, 24, 25, 26, 27, 28, 39, 40, 41, 42, 43, 54, 55
56, 57, 58, 69, 70, 71, 72, 73, 74, 84, 85, 86, 87, 88, 89, 99
100, 101, 102, 103, 114, 115, 116, 117, 118, 129, 130, 131, 132, 133, 144, 145
146, 147, 148, 159, 160, 161, 162, 163, 175, 176, 177, 190, 191, 206, 235, 236
237, 249, 250, 251, 252, 253, 264, 265, 266, 267, 268, 279, 280, 281, 282, 283
294, 295, 296, 297, 298, 309, 310, 311, 312, 313, 324, 325, 326, 327, 328, 339
340, 341, 342, 343, 355, 356, 357, 358, 370, 371, 372, 373, 385, 386, 475, 476
477, 489, 490, 491, 492, 493, 504, 505, 506, 507, 508, 519, 520, 521, 522, 523
534, 535, 536, 537, 550, 551, 552, 566, 2726, 2740, 2741, 2742, 2755, 2756, 2757, 2770
2771, 2772, 2786, 2787, 2801, 2802, 2816, 2817, 2831, 2832, 2833, 2845, 2846, 2847, 2848, 2860
2861, 2862, 2875, 2876, 2877, 2890, 2891, 2892, 2905, 2906, 2907, 2920, 2921, 2922, 2934, 2935
2936, 2949, 2950, 2951, 2952, 2965, 2966, 2967, 2968, 2980, 2981, 2982, 2983, 2995, 2996, 2997
2998, 3010, 3011, 3012, 3013, 3025, 3026, 3027, 3028, 3040, 3041, 3042, 3043, 3055, 3056, 3057
3058, 3070, 3071, 3072, 3073, 3085, 3086, 3087, 3088, 3099, 3100, 3101, 3102, 3103, 3114, 3115
3116, 3117, 3118, 3130, 3131, 3132, 3145, 3146, 3147, 3159, 3160, 3161, 3162, 3174, 3175, 3176
3177, 3178, 3189, 3190, 3191, 3192, 3193, 3204, 3205, 3206, 3207, 3208, 3219, 3220, 3221, 3222
3223, 3224, 3234, 3235, 3236, 3237, 3238, 3239, 3249, 3250, 3251, 3252, 3253, 3254, 3264, 3265
3266, 3267, 3268, 3269, 3279, 3280, 3281, 3282, 3283, 3294, 3295, 3296, 3297, 3298, 3309, 3310
3311, 3312, 3313, 3324, 3325, 3326, 3327, 3328, 3339, 3340, 3341, 3342, 3343, 3354, 3355, 3356
3357, 3358, 3369, 3370, 3371, 3372
*ELSET, ELSET=GRAIN2_SET
1126, 1351, 1352, 1366, 1367, 1368, 1378, 1379, 1380, 1381, 1382, 1393, 1394, 1395, 1409, 1410
1576, 1577, 1578, 1588, 1589, 1590, 1591, 1592, 1593, 1603, 1604, 1605, 1606, 1607, 1608, 1618
1619, 1620, 1621, 1622, 1633, 1634, 1635, 1649, 1650, 1801, 1802, 1803, 1813, 1814, 1815, 1816
1817, 1818, 1819, 1827, 1828, 1829, 1830, 1831, 1832, 1833, 1834, 1842, 1843, 1844, 1845, 1846
1847, 1848, 1857, 1858, 1859, 1860, 1861, 1862, 1873, 1874, 1875, 2011, 2012, 2026, 2027, 2028
2038, 2039, 2040, 2041, 2042, 2043, 2044, 2052, 2053, 2054, 2055, 2056, 2057, 2058, 2059, 2067
2068, 2069, 2070, 2071, 2072, 2073, 2074, 2082, 2083, 2084, 2085, 2086, 2087, 2088, 2097, 2098
2099, 2100, 2101, 2102, 2113, 2114, 2115, 2236, 2237, 2250, 2251, 2252, 2263, 2264, 2265, 2266
2267, 2268, 2277, 2278, 2279, 2280, 2281, 2282, 2283, 2284, 2292, 2293, 2294, 2295, 2296, 2297
2298, 2299, 2307, 2308, 2309, 2310, 2311, 2312, 2313, 2322, 2323, 2324, 2325, 2326, 2327, 2337
2338, 2339, 2340, 2341, 2342, 2353, 2354, 2355, 2461, 2475, 2476, 2488, 2489, 2490, 2491, 2492
2502, 2503, 2504, 2505, 2506, 2507, 2508, 2517, 2518, 2519, 2520, 2521, 2522, 2523, 2532, 2533
2534, 2535, 2536, 2537, 2547, 2548, 2549, 2550, 2551, 2552, 2562, 2563, 2564, 2565, 2566, 2577
2578, 2579, 2580, 2581, 2593, 2594, 2595, 2731, 2732, 2743, 2744, 2745, 2746, 2747, 2758, 2759
2760, 2761, 2762, 2773, 2774, 2775, 2776, 2777, 2788, 2789, 2790, 2791, 2803, 2804, 2805, 2806
2818, 2819, 2820, 2984, 2985, 2986, 2999, 3000, 3001, 3014, 3015, 3016, 3029, 3030, 3031, 3044
3045, 3240, 3255, 3270
*ELSET, ELSET=GRAIN3_SET
5, 6, 7, 138, 139, 140, 141, 153, 154, 155, 156, 157, 158, 168, 169, 170
171, 172, 173, 183, 184, 185, 186, 187, 188, 198, 199, 200, 201, 202, 203, 212
213, 214, 215, 216, 217, 218, 349, 350, 364, 365, 366, 367, 379, 380, 381, 382
383, 393, 394, 395, 396, 397, 398, 408, 409, 410, 411, 412, 413, 423, 424, 425
426, 427, 428, 438, 439, 440, 441, 442, 443, 574, 575, 576, 577, 589, 590, 591
592, 604, 605, 606, 607, 619, 620, 621, 622, 633, 634, 635, 636, 637, 648, 649
650, 651, 652, 663, 664, 665, 666, 667, 800, 801, 802, 814, 815, 816, 817, 829
830, 831, 832, 844, 845, 846, 847, 858, 859, 860, 861, 862, 873, 874, 875, 876
877, 888, 889, 890, 891, 1025, 1026, 1027, 1039, 1040, 1041, 1042, 1054, 1055, 1056, 1057
1069, 1070, 1071, 1072, 1083, 1084, 1085, 1086, 1087, 1098, 1099, 1100, 1113, 1114, 1251, 1264
1265, 1266, 1279, 1280, 1281, 2029, 2030, 2031, 2032, 2045, 2046, 2047, 2060, 2061, 2238, 2253
2254, 2255, 2256, 2257, 2258, 2269, 2270, 2271, 2272, 2273, 2448, 2449, 2462, 2463, 2464, 2465
2478, 2479, 2480, 2481, 2482, 2483, 2493, 2494, 2495, 2496, 2497, 2498, 2658, 2659, 2672, 2673
2674, 2675, 2676, 2687, 2688, 2689, 2690, 2691, 2692, 2693, 2704, 2705, 2706, 2707, 2708, 2709
2719, 2720, 2721, 2722, 2723, 2868, 2869, 2883, 2884, 2885, 2886, 2887, 2888, 2898, 2899, 2900
2901, 2902, 2903, 2904, 2913, 2914, 2915, 2916, 2917, 2918, 2919, 2929, 2930, 2931, 2932, 2933
2945, 2946, 3078, 3093, 3094, 3095, 3096, 3097, 3108, 3109, 3110, 3111, 3112, 3113, 3123, 3124
3125, 3126, 3127, 3128, 3129, 3138, 3139, 3140, 3141, 3142, 3143, 3144, 3154, 3155, 3156, 3157
3158, 3288, 3303, 3304, 3305, 3306, 3307, 3318, 3319, 3320, 3321, 3322, 3323, 3333, 3334, 3335
3336, 3337, 3338, 3348, 3349, 3350, 3351, 3352, 3353, 3363, 3364, 3365, 3366, 3367, 3368
*ELSET, ELSET=GRAIN4_SET
8, 21, 22, 23, 35, 36, 37, 38, 50, 51, 52, 53, 64, 65, 66, 67
68, 78, 79, 80, 81, 82, 83, 93, 94, 95, 96, 97, 98, 108, 109, 110
111, 112, 113, 123, 124, 125, 126, 127, 128, 142, 143, 231, 232, 233, 246, 247
248, 260, 261, 262, 263, 275, 276, 277, 278, 289, 290, 291, 292, 293, 304, 305
306, 307, 308, 319, 320, 321, 322, 323, 334, 335, 336, 337, 338, 351, 352, 456
457, 458, 471, 472, 473, 486, 487, 488, 501, 502, 503, 515, 516, 517, 518, 530
531, 532, 533, 545, 546, 547, 548, 560, 561, 562, 681, 682, 696, 697, 698, 711
712, 713, 726, 727, 728, 729, 741, 742, 743, 756, 757, 758, 771, 772, 892, 906
907, 921, 922, 923, 936, 937, 938, 951, 952, 953, 966, 967, 968, 982, 997, 1101
1102, 1115, 1116, 1117, 1131, 1132, 1146, 1147, 1161, 1162, 1163, 1177, 1178, 1192, 1252, 1267
1282, 1294, 1295, 1296, 1297, 1309, 1310, 1311, 1312, 1313, 1324, 1325, 1326, 1327, 1328, 1339
1340, 1341, 1342, 1343, 1356, 1357, 1371, 1372, 1386, 1387, 1402, 1462, 1475, 1476, 1477, 1490
1491, 1492, 1493, 1504, 1505, 1506, 1507, 1508, 1519, 1520, 1521, 1522, 1523, 1534, 1535, 1536
1537, 1538, 1549, 1550, 1551, 1552, 1553, 1564, 1565, 1566, 1567, 1568, 1582, 1596, 1597, 1611
1612, 1657, 1672, 1685, 1686, 1687, 1688, 1699, 1700, 1701, 1702, 1703, 1714, 1715, 1716, 1717
1718, 1729, 1730, 1731, 1732, 1733, 1744, 1745, 1746, 1747, 1748, 1759, 1760, 1761, 1762, 1763
1774, 1775, 1776, 1777, 1778, 1789, 1790, 1791, 1792, 1793, 1852, 1866, 1867, 1880, 1881, 1882
1883, 1895, 1896, 1897, 1898, 1909, 1910, 1911, 1912, 1913, 1924, 1925, 1926, 1927, 1928, 1938
1939, 1940, 1941, 1942, 1943, 1953, 1954, 1955, 1956, 1957, 1958, 1968, 1969, 1970, 1971, 1972
1973, 1983, 1984, 1985, 1986, 1987, 1988, 1999, 2000, 2001, 2002, 2003, 2014, 2015, 2016, 2017
2018, 2062, 2075, 2076, 2077, 2078, 2089, 2090, 2091, 2092, 2093, 2104, 2105, 2106, 2107, 2108
2118, 2119, 2120, 2121, 2122, 2123, 2124, 2133, 2134, 2135, 2136, 2137, 2138, 2139, 2148, 2149
2150, 2151, 2152, 2153, 2154, 2163, 2164, 2165, 2166, 2167, 2168, 2169, 2178, 2179, 2180, 2181
2182, 2183, 2184, 2193, 2194, 2195, 2196, 2197, 2198, 2199, 2208, 2209, 2210, 2211, 2212, 2213
2223, 2224, 2225, 2226, 2227, 2228, 2239, 2240, 2241, 2242, 2243, 2285, 2286, 2287, 2288, 2300
2301, 2302, 2303, 2304, 2314, 2315, 2316, 2317, 2318, 2319, 2328, 2329, 2330, 2331, 2332, 2333
2334, 2343, 2344, 2345, 2346, 2347, 2348, 2349, 2358, 2359, 2360, 2361, 2362, 2363, 2364, 2373
2374, 2375, 2376, 2377, 2378, 2379, 2388, 2389, 2390, 2391, 2392, 2393, 2394, 2403, 2404, 2405
2406, 2407, 2408, 2409, 2418, 2419, 2420, 2421, 2422, 2423, 2424, 2433, 2434, 2435, 2436, 2437
2438, 2439, 2450, 2451, 2452, 2453, 2466, 2467, 2468, 2509, 2510, 2511, 2512, 2513, 2514, 2524
2525, 2526, 2527, 2528, 2529, 2538, 2539, 2540, 2541, 2542, 2543, 2544, 2545, 2553, 2554, 2555
2556, 2557, 2558, 2559, 2560, 2567, 2568, 2569, 2570, 2571, 2572, 2573, 2574, 2575, 2582, 2583
2584, 2585, 2586, 2587, 2588, 2589, 2590, 2597, 2598, 2599, 2600, 2601, 2602, 2603, 2604, 2605
2613, 2614, 2615, 2616, 2617, 2618, 2619, 2620, 2628, 2629, 2630, 2631, 2632, 2633, 2634, 2643
2644, 2645, 2646, 2647, 2648, 2649, 2660, 2661, 2662, 2663, 2664, 2677, 2678, 2724, 2734, 2735
2736, 2737, 2738, 2739, 2748, 2749, 2750, 2751, 2752, 2753, 2754, 2763, 2764, 2765, 2766, 2767
2768, 2769, 2778, 2779, 2780, 2781, 2782, 2783, 2784, 2785, 2792, 2793, 2794, 2795, 2796, 2797
2798, 2799, 2800, 2807, 2808, 2809, 2810, 2811, 2812, 2813, 2814, 2815, 2822, 2823, 2824, 2825
2826, 2827, 2828, 2829, 2830, 2838, 2839, 2840, 2841, 2842, 2843, 2844, 2853, 2854, 2855, 2856
2857, 2858, 2859, 2870, 2871, 2872, 2873, 2874, 2889, 2947, 2948, 2960, 2961, 2962, 2963, 2964
2973, 2974, 2975, 2976, 2977, 2978, 2979, 2987, 2988, 2989, 2990, 2991, 2992, 2993, 2994, 3002
3003, 3004, 3005, 3006, 3007, 3008, 3009, 3017, 3018, 3019, 3020, 3021, 3022, 3023, 3024, 3032
3033, 3034, 3035, 3036, 3037, 3038, 3039, 3047, 3048, 3049, 3050, 3051, 3052, 3053, 3054, 3063
3064, 3065, 3066, 3067, 3068, 3069, 3079, 3080, 3081, 3082, 3083, 3084, 3098, 3171, 3172, 3173
3185, 3186, 3187, 3188, 3199, 3200, 3201, 3202, 3203, 3213, 3214, 3215, 3216, 3217, 3218, 3227
3228, 3229, 3230, 3231, 3232, 3233, 3242, 3243, 3244, 3245, 3246, 3247, 3248, 3257, 3258, 3259
3260, 3261, 3262, 3263, 3273, 3274, 3275, 3276, 3277, 3278, 3289, 3290, 3291, 3292, 3293, 3308
*ELSET, ELSET=GRAIN5_SET
1, 2, 3, 4, 14, 15, 16, 17, 18, 19, 20, 29, 30, 31, 32, 33
34, 44, 45, 46, 47, 48, 49, 59, 60, 61, 62, 63, 75, 76, 77, 90
226, 227, 228, 229, 230, 239, 240, 241, 242, 243, 244, 245, 254, 255, 256, 257
258, 259, 269, 270, 271, 272, 273, 274, 284, 285, 286, 287, 288, 299, 300, 301
302, 303, 315, 317, 318, 451, 452, 453, 454, 455, 464, 465, 466, 467, 468, 469
470, 479, 480, 481, 482, 483, 484, 485, 494, 495, 496, 497, 498, 499, 500, 509
510, 511, 512, 513, 514, 524, 525, 526, 527, 528, 529, 540, 542, 543, 544, 676
677, 678, 679, 680, 690, 691, 692, 693, 694, 695, 705, 706, 707, 708, 709, 710
719, 720, 721, 722, 723, 724, 725, 733, 734, 735, 736, 737, 738, 739, 740, 749
750, 751, 752, 753, 754, 755, 766, 767, 768, 769, 770, 784, 785, 786, 901, 902
903, 904, 905, 915, 916, 917, 918, 919, 920, 930, 931, 932, 933, 934, 935, 944
945, 946, 947, 948, 949, 950, 958, 959, 960, 961, 962, 963, 964, 965, 974, 975
976, 977, 978, 979, 980, 981, 991, 992, 993, 994, 995, 996, 1006, 1007, 1008, 1009
1010, 1011, 1141, 1142, 1143, 1144, 1145, 1155, 1156, 1157, 1158, 1159, 1160, 1169, 1170, 1171
1172, 1173, 1174, 1175, 1176, 1184, 1185, 1186, 1187, 1188, 1189, 1190, 1191, 1199, 1200, 1201
1202, 1203, 1204, 1205, 1206, 1207, 1216, 1217, 1218, 1219, 1220, 1221, 1222, 1231, 1232, 1233
1234, 1235, 1236, 1246, 1247, 1248, 1249, 1250, 1369, 1370, 1383, 1384, 1385, 1396, 1397, 1398
1399, 1400, 1401, 1411, 1412, 1413, 1414, 1415, 1416, 1417, 1424, 1425, 1426, 1427, 1428, 1429
1430, 1431, 1432, 1441, 1442, 1443, 1444, 1445, 1446, 1447, 1456, 1457, 1458, 1459, 1460, 1461
1471, 1472, 1473, 1474, 1486, 1487, 1488, 1489, 1609, 1610, 1623, 1624, 1625, 1626, 1627, 1636
1637, 1638, 1639, 1640, 1641, 1642, 1651, 1652, 1653, 1654, 1655, 1656, 1666, 1667, 1668, 1669
1670, 1671, 1681, 1682, 1683, 1684, 1696, 1697, 1698, 1711, 1712, 1713, 1726, 1835, 1849, 1850
1851, 1863, 1864, 1865, 1876, 1877, 1878, 1879, 1891, 1892, 1893, 1894, 1906, 1907, 1908, 1921
1922, 1923, 1936, 1937, 1951, 1952, 1966, 1967, 2103, 2116, 2117, 2131, 2132, 2146, 2147, 2161
2162, 2176, 2177, 2191, 2192, 2206, 2207, 2221, 2222, 2356, 2357, 2371, 2372, 2386, 2387, 2401
2402, 2416, 2417, 2431, 2432, 2446, 2447, 2477, 2596, 2609, 2610, 2611, 2612, 2624, 2625, 2626
2627, 2639, 2640, 2641, 2642, 2654, 2655, 2656, 2657, 2669, 2670, 2671, 2684, 2685, 2686, 2699
2700, 2701, 2702, 2703, 2713, 2714, 2715, 2716, 2717, 2718, 2728, 2729, 2730, 2733, 2821, 2834
2835, 2836, 2837, 2849, 2850, 2851, 2852, 2863, 2864, 2865, 2866, 2867, 2878, 2879, 2880, 2881
2882, 2893, 2894, 2895, 2896, 2897, 2908, 2909, 2910, 2911, 2912, 2923, 2924, 2925, 2926, 2927
2928, 2938, 2939, 2940, 2941, 2942, 2943, 2944, 2953, 2954, 2955, 2956, 2957, 2958, 2959, 2969
2970, 2971, 2972, 3046, 3061, 3062, 3074, 3075, 3076, 3077, 3089, 3090, 3091, 3092, 3104, 3105
3106, 3107, 3119, 3120, 3121, 3122, 3133, 3134, 3135, 3136, 3137, 3148, 3149, 3150, 3151, 3152
3153, 3163, 3164, 3165, 3166, 3167, 3168, 3169, 3170, 3179, 3180, 3181, 3182, 3183, 3184, 3194
3195, 3196, 3197, 3198, 3209, 3210, 3211, 3212, 3225, 3226, 3286, 3287, 3301, 3302, 3316, 3317
3331, 3332, 3344, 3345, 3346, 3347, 3359, 3360, 3361, 3362, 3373, 3374, 3375
*ELSET, ELSET=GRAIN6_SET
13, 91, 92, 104, 105, 106, 107, 119, 120, 121, 122, 134, 135, 136, 137, 149
150, 151, 152, 164, 165, 166, 167, 174, 178, 179, 180, 181, 182, 189, 192, 193
194, 195, 196, 197, 204, 205, 207, 208, 209, 210, 211, 219, 220, 221, 222, 223
224, 225, 234, 238, 314, 316, 329, 330, 331, 332, 333, 344, 345, 346, 347, 348
353, 354, 359, 360, 361, 362, 363, 368, 369, 374, 375, 376, 377, 378, 384, 387
388, 389, 390, 391, 392, 399, 400, 401, 402, 403, 404, 405, 406, 407, 414, 415
416, 417, 418, 419, 420, 421, 422, 429, 430, 431, 432, 433, 434, 435, 436, 437
444, 445, 446, 447, 448, 449, 450, 459, 460, 461, 462, 463, 474, 478, 538, 539
541, 549, 553, 554, 555, 556, 557, 558, 559, 563, 564, 565, 567, 568, 569, 570
571, 572, 573, 578, 579, 580, 581, 582, 583, 584, 585, 586, 587, 588, 593, 594
595, 596, 597, 598, 599, 600, 601, 602, 603, 608, 609, 610, 611, 612, 613, 614
615, 616, 617, 618, 623, 624, 625, 626, 627, 628, 629, 630, 631, 632, 638, 639
640, 641, 642, 643, 644, 645, 646, 647, 653, 654, 655, 656, 657, 658, 659, 660
661, 662, 668, 669, 670, 671, 672, 673, 674, 675, 683, 684, 685, 686, 687, 688
689, 699, 700, 701, 702, 703, 704, 714, 715, 716, 717, 718, 730, 731, 732, 744
745, 746, 747, 748, 759, 760, 761, 762, 763, 764, 765, 773, 774, 775, 776, 777
778, 779, 780, 781, 782, 783, 787, 788, 789, 790, 791, 792, 793, 794, 795, 796
797, 798, 799, 803, 804, 805, 806, 807, 808, 809, 810, 811, 812, 813, 818, 819
820, 821, 822, 823, 824, 825, 826, 827, 828, 833, 834, 835, 836, 837, 838, 839
840, 841, 842, 843, 848, 849, 850, 851, 852, 853, 854, 855, 856, 857, 863, 864
865, 866, 867, 868, 869, 870, 871, 872, 878, 879, 880, 881, 882, 883, 884, 885
886, 887, 893, 894, 895, 896, 897, 898, 899, 900, 908, 909, 910, 911, 912, 913
914, 924, 925, 926, 927, 928, 929, 939, 940, 941, 942, 943, 954, 955, 956, 957
969, 970, 971, 972, 973, 983, 984, 985, 986, 987, 988, 989, 990, 998, 999, 1000
1001, 1002, 1003, 1004, 1005, 1012, 1013, 1014, 1015, 1016, 1017, 1018, 1019, 1020, 1021, 1022
1023, 1024, 1028, 1029, 1030, 1031, 1032, 1033, 1034, 1035, 1036, 1037, 1038, 1043, 1044, 1045
1046, 1047, 1048, 1049, 1050, 1051, 1052, 1053, 1058, 1059, 1060, 1061, 1062, 1063, 1064, 1065
1066, 1067, 1068, 1073, 1074, 1075, 1076, 1077, 1078, 1079, 1080, 1081, 1082, 1088, 1089, 1090
1091, 1092, 1093, 1094, 1095, 1096, 1097, 1103, 1104, 1105, 1106, 1107, 1108, 1109, 1110, 1111
1112, 1118, 1119, 1120, 1121, 1122, 1123, 1124, 1125, 1127, 1128, 1129, 1130, 1133, 1134, 1135
1136, 1137, 1138, 1139, 1140, 1148, 1149, 1150, 1151, 1152, 1153, 1154, 1164, 1165, 1166, 1167
1168, 1179, 1180, 1181, 1182, 1183, 1193, 1194, 1195, 1196, 1197, 1198, 1208, 1209, 1210, 1211
1212, 1213, 1214, 1215, 1223, 1224, 1225, 1226, 1227, 1228, 1229, 1230, 1237, 1238, 1239, 1240
1241, 1242, 1243, 1244, 1245, 1253, 1254, 1255, 1256, 1257, 1258, 1259, 1260, 1261, 1262, 1263
1268, 1269, 1270, 1271, 1272, 1273, 1274, 1275, 1276, 1277, 1278, 1283, 1284, 1285, 1286, 1287
1288, 1289, 1290, 1291, 1292, 1293, 1298, 1299, 1300, 1301, 1302, 1303, 1304, 1305, 1306, 1307
1308, 1314, 1315, 1316, 1317, 1318, 1319, 1320, 1321, 1322, 1323, 1329, 1330, 1331, 1332, 1333
1334, 1335, 1336, 1337, 1338, 1344, 1345, 1346, 1347, 1348, 1349, 1350, 1353, 1354, 1355, 1358
1359, 1360, 1361, 1362, 1363, 1364, 1365, 1373, 1374, 1375, 1376, 1377, 1388, 1389, 1390, 1391
1392, 1403, 1404, 1405, 1406, 1407, 1408, 1418, 1419, 1420, 1421, 1422, 1423, 1433, 1434, 1435
1436, 1437, 1438, 1439, 1440, 1448, 1449, 1450, 1451, 1452, 1453, 1454, 1455, 1463, 1464, 1465
1466, 1467, 1468, 1469, 1470, 1478, 1479, 1480, 1481, 1482, 1483, 1484, 1485, 1494, 1495, 1496
1497, 1498, 1499, 1500, 1501, 1502, 1503, 1509, 1510, 1511, 1512, 1513, 1514, 1515, 1516, 1517
1518, 1524, 1525, 1526, 1527, 1528, 1529, 1530, 1531, 1532, 1533, 1539, 1540, 1541, 1542, 1543
1544, 1545, 1546, 1547, 1548, 1554, 1555, 1556, 1557, 1558, 1559, 1560, 1561, 1562, 1563, 1569
1570, 1571, 1572, 1573, 1574, 1575, 1579, 1580, 1581, 1583, 1584, 1585, 1586, 1587, 1594, 1595
1598, 1599, 1600, 1601, 1602, 1613, 1614, 1615, 1616, 1617, 1628, 1629, 1630, 1631, 1632, 1643
1644, 1645, 1646, 1647, 1648, 1658, 1659, 1660, 1661, 1662, 1663, 1664, 1665, 1673, 1674, 1675
1676, 1677, 1678, 1679, 1680, 1689, 1690, 1691, 1692, 1693, 1694, 1695, 1704, 1705, 1706, 1707
1708, 1709, 1710, 1719, 1720, 1721, 1722, 1723, 1724, 1725, 1727, 1728, 1734, 1735, 1736, 1737
1738, 1739, 1740, 1741, 1742, 1743, 1749, 1750, 1751, 1752, 1753, 1754, 1755, 1756, 1757, 1758
1764, 1765, 1766, 1767, 1768, 1769, 1770, 1771, 1772, 1773, 1779, 1780, 1781, 1782, 1783, 1784
1785, 1786, 1787, 1788, 1794, 1795, 1796, 1797, 1798, 1799, 1800, 1804, 1805, 1806, 1807, 1808
1809, 1810, 1811, 1812, 1820, 1821, 1822, 1823, 1824, 1825, 1826, 1836, 1837, 1838, 1839, 1840
1841, 1853, 1854, 1855, 1856, 1868, 1869, 1870, 1871, 1872, 1884, 1885, 1886, 1887, 1888, 1889
1890, 1899, 1900, 1901, 1902, 1903, 1904, 1905, 1914, 1915, 1916, 1917, 1918, 1919, 1920, 1929
1930, 1931, 1932, 1933, 1934, 1935, 1944, 1945, 1946, 1947, 1948, 1949, 1950, 1959, 1960, 1961
1962, 1963, 1964, 1965, 1974, 1975, 1976, 1977, 1978, 1979, 1980, 1981, 1982, 1989, 1990, 1991
1992, 1993, 1994, 1995, 1996, 1997, 1998, 2004, 2005, 2006, 2007, 2008, 2009, 2010, 2013, 2019
2020, 2021, 2022, 2023, 2024, 2025, 2033, 2034, 2035, 2036, 2037, 2048, 2049, 2050, 2051, 2063
2064, 2065, 2066, 2079, 2080, 2081, 2094, 2095, 2096, 2109, 2110, 2111, 2112, 2125, 2126, 2127
2128, 2129, 2130, 2140, 2141, 2142, 2143, 2144, 2145, 2155, 2156, 2157, 2158, 2159, 2160, 2170
2171, 2172, 2173, 2174, 2175, 2185, 2186, 2187, 2188, 2189, 2190, 2200, 2201, 2202, 2203, 2204
2205, 2214, 2215, 2216, 2217, 2218, 2219, 2220, 2229, 2230, 2231, 2232, 2233, 2234, 2235, 2244
2245, 2246, 2247, 2248, 2249, 2259, 2260, 2261, 2262, 2274, 2275, 2276, 2289, 2290, 2291, 2305
2306, 2320, 2321, 2335, 2336, 2350, 2351, 2352, 2365, 2366, 2367, 2368, 2369, 2370, 2380, 2381
2382, 2383, 2384, 2385, 2395, 2396, 2397, 2398, 2399, 2400, 2410, 2411, 2412, 2413, 2414, 2415
2425, 2426, 2427, 2428, 2429, 2430, 2440, 2441, 2442, 2443, 2444, 2445, 2454, 2455, 2456, 2457
2458, 2459, 2460, 2469, 2470, 2471, 2472, 2473, 2474, 2484, 2485, 2486, 2487, 2499, 2500, 2501
2515, 2516, 2530, 2531, 2546, 2561, 2576, 2591, 2592, 2606, 2607, 2608, 2621, 2622, 2623, 2635
2636, 2637, 2638, 2650, 2651, 2652, 2653, 2665, 2666, 2667, 2668, 2679, 2680, 2681, 2682, 2683
2694, 2695, 2696, 2697, 2698, 2710, 2711, 2712, 2725, 2727, 2937, 3059, 3060, 3241, 3256, 3271
3272, 3284, 3285, 3299, 3300, 3314, 3315, 3329, 3330
*Solid Section, elset=GRAIN1_SET, material=GRAIN1_MAT
*Solid Section, elset=GRAIN2_SET, material=GRAIN2_MAT
*Solid Section, elset=GRAIN3_SET, material=GRAIN3_MAT
*Solid Section, elset=GRAIN4_SET, material=GRAIN4_MAT
*Solid Section, elset=GRAIN5_SET, material=GRAIN5_MAT
*Solid Section, elset=GRAIN6_SET, material=GRAIN6_MAT
**** ======================================================== 
**** Left to Right 
**** 
**** X-DIR 
*Equation 
4 
3843,1, 1 
8,1,-1 
3871,1,-1 
62,1, 1 
*Equation 
4 
3846,1, 1 
12,1,-1 
3871,1,-1 
62,1, 1 
*Equation 
4 
3848,1, 1 
16,1,-1 
3871,1,-1 
62,1, 1 
*Equation 
4 
3850,1, 1 
20,1,-1 
3871,1,-1 
62,1, 1 
*Equation 
4 
3852,1, 1 
24,1,-1 
3871,1,-1 
62,1, 1 
*Equation 
4 
3854,1, 1 
28,1,-1 
3871,1,-1 
62,1, 1 
*Equation 
4 
3856,1, 1 
32,1,-1 
3871,1,-1 
62,1, 1 
*Equation 
4 
3858,1, 1 
36,1,-1 
3871,1,-1 
62,1, 1 
*Equation 
4 
3860,1, 1 
40,1,-1 
3871,1,-1 
62,1, 1 
*Equation 
4 
3862,1, 1 
44,1,-1 
3871,1,-1 
62,1, 1 
*Equation 
4 
3864,1, 1 
48,1,-1 
3871,1,-1 
62,1, 1 
*Equation 
4 
3866,1, 1 
52,1,-1 
3871,1,-1 
62,1, 1 
*Equation 
4 
3868,1, 1 
56,1,-1 
3871,1,-1 
62,1, 1 
*Equation 
4 
3870,1, 1 
60,1,-1 
3871,1,-1 
62,1, 1 
*Equation 
4 
3873,1, 1 
68,1,-1 
3871,1,-1 
62,1, 1 
*Equation 
4 
3875,1, 1 
70,1,-1 
3871,1,-1 
62,1, 1 
*Equation 
4 
3876,1, 1 
72,1,-1 
3871,1,-1 
62,1, 1 
*Equation 
4 
3877,1, 1 
74,1,-1 
3871,1,-1 
62,1, 1 
*Equation 
4 
3878,1, 1 
76,1,-1 
3871,1,-1 
62,1, 1 
*Equation 
4 
3879,1, 1 
78,1,-1 
3871,1,-1 
62,1, 1 
*Equation 
4 
3880,1, 1 
80,1,-1 
3871,1,-1 
62,1, 1 
*Equation 
4 
3881,1, 1 
82,1,-1 
3871,1,-1 
62,1, 1 
*Equation 
4 
3882,1, 1 
84,1,-1 
3871,1,-1 
62,1, 1 
*Equation 
4 
3883,1, 1 
86,1,-1 
3871,1,-1 
62,1, 1 
*Equation 
4 
3884,1, 1 
88,1,-1 
3871,1,-1 
62,1, 1 
*Equation 
4 
3885,1, 1 
90,1,-1 
3871,1,-1 
62,1, 1 
*Equation 
4 
3886,1, 1 
92,1,-1 
3871,1,-1 
62,1, 1 
*Equation 
4 
3887,1, 1 
94,1,-1 
3871,1,-1 
62,1, 1 
*Equation 
4 
3889,1, 1 
100,1,-1 
3871,1,-1 
62,1, 1 
*Equation 
4 
3891,1, 1 
102,1,-1 
3871,1,-1 
62,1, 1 
*Equation 
4 
3892,1, 1 
104,1,-1 
3871,1,-1 
62,1, 1 
*Equation 
4 
3893,1, 1 
106,1,-1 
3871,1,-1 
62,1, 1 
*Equation 
4 
3894,1, 1 
108,1,-1 
3871,1,-1 
62,1, 1 
*Equation 
4 
3895,1, 1 
110,1,-1 
3871,1,-1 
62,1, 1 
*Equation 
4 
3896,1, 1 
112,1,-1 
3871,1,-1 
62,1, 1 
*Equation 
4 
3897,1, 1 
114,1,-1 
3871,1,-1 
62,1, 1 
*Equation 
4 
3898,1, 1 
116,1,-1 
3871,1,-1 
62,1, 1 
*Equation 
4 
3899,1, 1 
118,1,-1 
3871,1,-1 
62,1, 1 
*Equation 
4 
3900,1, 1 
120,1,-1 
3871,1,-1 
62,1, 1 
*Equation 
4 
3901,1, 1 
122,1,-1 
3871,1,-1 
62,1, 1 
*Equation 
4 
3902,1, 1 
124,1,-1 
3871,1,-1 
62,1, 1 
*Equation 
4 
3903,1, 1 
126,1,-1 
3871,1,-1 
62,1, 1 
*Equation 
4 
3905,1, 1 
132,1,-1 
3871,1,-1 
62,1, 1 
*Equation 
4 
3907,1, 1 
134,1,-1 
3871,1,-1 
62,1, 1 
*Equation 
4 
3908,1, 1 
136,1,-1 
3871,1,-1 
62,1, 1 
*Equation 
4 
3909,1, 1 
138,1,-1 
3871,1,-1 
62,1, 1 
*Equation 
4 
3910,1, 1 
140,1,-1 
3871,1,-1 
62,1, 1 
*Equation 
4 
3911,1, 1 
142,1,-1 
3871,1,-1 
62,1, 1 
*Equation 
4 
3912,1, 1 
144,1,-1 
3871,1,-1 
62,1, 1 
*Equation 
4 
3913,1, 1 
146,1,-1 
3871,1,-1 
62,1, 1 
*Equation 
4 
3914,1, 1 
148,1,-1 
3871,1,-1 
62,1, 1 
*Equation 
4 
3915,1, 1 
150,1,-1 
3871,1,-1 
62,1, 1 
*Equation 
4 
3916,1, 1 
152,1,-1 
3871,1,-1 
62,1, 1 
*Equation 
4 
3917,1, 1 
154,1,-1 
3871,1,-1 
62,1, 1 
*Equation 
4 
3918,1, 1 
156,1,-1 
3871,1,-1 
62,1, 1 
*Equation 
4 
3919,1, 1 
158,1,-1 
3871,1,-1 
62,1, 1 
*Equation 
4 
3921,1, 1 
164,1,-1 
3871,1,-1 
62,1, 1 
*Equation 
4 
3923,1, 1 
166,1,-1 
3871,1,-1 
62,1, 1 
*Equation 
4 
3924,1, 1 
168,1,-1 
3871,1,-1 
62,1, 1 
*Equation 
4 
3925,1, 1 
170,1,-1 
3871,1,-1 
62,1, 1 
*Equation 
4 
3926,1, 1 
172,1,-1 
3871,1,-1 
62,1, 1 
*Equation 
4 
3927,1, 1 
174,1,-1 
3871,1,-1 
62,1, 1 
*Equation 
4 
3928,1, 1 
176,1,-1 
3871,1,-1 
62,1, 1 
*Equation 
4 
3929,1, 1 
178,1,-1 
3871,1,-1 
62,1, 1 
*Equation 
4 
3930,1, 1 
180,1,-1 
3871,1,-1 
62,1, 1 
*Equation 
4 
3931,1, 1 
182,1,-1 
3871,1,-1 
62,1, 1 
*Equation 
4 
3932,1, 1 
184,1,-1 
3871,1,-1 
62,1, 1 
*Equation 
4 
3933,1, 1 
186,1,-1 
3871,1,-1 
62,1, 1 
*Equation 
4 
3934,1, 1 
188,1,-1 
3871,1,-1 
62,1, 1 
*Equation 
4 
3935,1, 1 
190,1,-1 
3871,1,-1 
62,1, 1 
*Equation 
4 
3937,1, 1 
196,1,-1 
3871,1,-1 
62,1, 1 
*Equation 
4 
3939,1, 1 
198,1,-1 
3871,1,-1 
62,1, 1 
*Equation 
4 
3940,1, 1 
200,1,-1 
3871,1,-1 
62,1, 1 
*Equation 
4 
3941,1, 1 
202,1,-1 
3871,1,-1 
62,1, 1 
*Equation 
4 
3942,1, 1 
204,1,-1 
3871,1,-1 
62,1, 1 
*Equation 
4 
3943,1, 1 
206,1,-1 
3871,1,-1 
62,1, 1 
*Equation 
4 
3944,1, 1 
208,1,-1 
3871,1,-1 
62,1, 1 
*Equation 
4 
3945,1, 1 
210,1,-1 
3871,1,-1 
62,1, 1 
*Equation 
4 
3946,1, 1 
212,1,-1 
3871,1,-1 
62,1, 1 
*Equation 
4 
3947,1, 1 
214,1,-1 
3871,1,-1 
62,1, 1 
*Equation 
4 
3948,1, 1 
216,1,-1 
3871,1,-1 
62,1, 1 
*Equation 
4 
3949,1, 1 
218,1,-1 
3871,1,-1 
62,1, 1 
*Equation 
4 
3950,1, 1 
220,1,-1 
3871,1,-1 
62,1, 1 
*Equation 
4 
3951,1, 1 
222,1,-1 
3871,1,-1 
62,1, 1 
*Equation 
4 
3953,1, 1 
228,1,-1 
3871,1,-1 
62,1, 1 
*Equation 
4 
3955,1, 1 
230,1,-1 
3871,1,-1 
62,1, 1 
*Equation 
4 
3956,1, 1 
232,1,-1 
3871,1,-1 
62,1, 1 
*Equation 
4 
3957,1, 1 
234,1,-1 
3871,1,-1 
62,1, 1 
*Equation 
4 
3958,1, 1 
236,1,-1 
3871,1,-1 
62,1, 1 
*Equation 
4 
3959,1, 1 
238,1,-1 
3871,1,-1 
62,1, 1 
*Equation 
4 
3960,1, 1 
240,1,-1 
3871,1,-1 
62,1, 1 
*Equation 
4 
3961,1, 1 
242,1,-1 
3871,1,-1 
62,1, 1 
*Equation 
4 
3962,1, 1 
244,1,-1 
3871,1,-1 
62,1, 1 
*Equation 
4 
3963,1, 1 
246,1,-1 
3871,1,-1 
62,1, 1 
*Equation 
4 
3964,1, 1 
248,1,-1 
3871,1,-1 
62,1, 1 
*Equation 
4 
3965,1, 1 
250,1,-1 
3871,1,-1 
62,1, 1 
*Equation 
4 
3966,1, 1 
252,1,-1 
3871,1,-1 
62,1, 1 
*Equation 
4 
3967,1, 1 
254,1,-1 
3871,1,-1 
62,1, 1 
*Equation 
4 
3969,1, 1 
260,1,-1 
3871,1,-1 
62,1, 1 
*Equation 
4 
3971,1, 1 
262,1,-1 
3871,1,-1 
62,1, 1 
*Equation 
4 
3972,1, 1 
264,1,-1 
3871,1,-1 
62,1, 1 
*Equation 
4 
3973,1, 1 
266,1,-1 
3871,1,-1 
62,1, 1 
*Equation 
4 
3974,1, 1 
268,1,-1 
3871,1,-1 
62,1, 1 
*Equation 
4 
3975,1, 1 
270,1,-1 
3871,1,-1 
62,1, 1 
*Equation 
4 
3976,1, 1 
272,1,-1 
3871,1,-1 
62,1, 1 
*Equation 
4 
3977,1, 1 
274,1,-1 
3871,1,-1 
62,1, 1 
*Equation 
4 
3978,1, 1 
276,1,-1 
3871,1,-1 
62,1, 1 
*Equation 
4 
3979,1, 1 
278,1,-1 
3871,1,-1 
62,1, 1 
*Equation 
4 
3980,1, 1 
280,1,-1 
3871,1,-1 
62,1, 1 
*Equation 
4 
3981,1, 1 
282,1,-1 
3871,1,-1 
62,1, 1 
*Equation 
4 
3982,1, 1 
284,1,-1 
3871,1,-1 
62,1, 1 
*Equation 
4 
3983,1, 1 
286,1,-1 
3871,1,-1 
62,1, 1 
*Equation 
4 
3985,1, 1 
292,1,-1 
3871,1,-1 
62,1, 1 
*Equation 
4 
3987,1, 1 
294,1,-1 
3871,1,-1 
62,1, 1 
*Equation 
4 
3988,1, 1 
296,1,-1 
3871,1,-1 
62,1, 1 
*Equation 
4 
3989,1, 1 
298,1,-1 
3871,1,-1 
62,1, 1 
*Equation 
4 
3990,1, 1 
300,1,-1 
3871,1,-1 
62,1, 1 
*Equation 
4 
3991,1, 1 
302,1,-1 
3871,1,-1 
62,1, 1 
*Equation 
4 
3992,1, 1 
304,1,-1 
3871,1,-1 
62,1, 1 
*Equation 
4 
3993,1, 1 
306,1,-1 
3871,1,-1 
62,1, 1 
*Equation 
4 
3994,1, 1 
308,1,-1 
3871,1,-1 
62,1, 1 
*Equation 
4 
3995,1, 1 
310,1,-1 
3871,1,-1 
62,1, 1 
*Equation 
4 
3996,1, 1 
312,1,-1 
3871,1,-1 
62,1, 1 
*Equation 
4 
3997,1, 1 
314,1,-1 
3871,1,-1 
62,1, 1 
*Equation 
4 
3998,1, 1 
316,1,-1 
3871,1,-1 
62,1, 1 
*Equation 
4 
3999,1, 1 
318,1,-1 
3871,1,-1 
62,1, 1 
*Equation 
4 
4001,1, 1 
324,1,-1 
3871,1,-1 
62,1, 1 
*Equation 
4 
4003,1, 1 
326,1,-1 
3871,1,-1 
62,1, 1 
*Equation 
4 
4004,1, 1 
328,1,-1 
3871,1,-1 
62,1, 1 
*Equation 
4 
4005,1, 1 
330,1,-1 
3871,1,-1 
62,1, 1 
*Equation 
4 
4006,1, 1 
332,1,-1 
3871,1,-1 
62,1, 1 
*Equation 
4 
4007,1, 1 
334,1,-1 
3871,1,-1 
62,1, 1 
*Equation 
4 
4008,1, 1 
336,1,-1 
3871,1,-1 
62,1, 1 
*Equation 
4 
4009,1, 1 
338,1,-1 
3871,1,-1 
62,1, 1 
*Equation 
4 
4010,1, 1 
340,1,-1 
3871,1,-1 
62,1, 1 
*Equation 
4 
4011,1, 1 
342,1,-1 
3871,1,-1 
62,1, 1 
*Equation 
4 
4012,1, 1 
344,1,-1 
3871,1,-1 
62,1, 1 
*Equation 
4 
4013,1, 1 
346,1,-1 
3871,1,-1 
62,1, 1 
*Equation 
4 
4014,1, 1 
348,1,-1 
3871,1,-1 
62,1, 1 
*Equation 
4 
4015,1, 1 
350,1,-1 
3871,1,-1 
62,1, 1 
*Equation 
4 
4017,1, 1 
356,1,-1 
3871,1,-1 
62,1, 1 
*Equation 
4 
4019,1, 1 
358,1,-1 
3871,1,-1 
62,1, 1 
*Equation 
4 
4020,1, 1 
360,1,-1 
3871,1,-1 
62,1, 1 
*Equation 
4 
4021,1, 1 
362,1,-1 
3871,1,-1 
62,1, 1 
*Equation 
4 
4022,1, 1 
364,1,-1 
3871,1,-1 
62,1, 1 
*Equation 
4 
4023,1, 1 
366,1,-1 
3871,1,-1 
62,1, 1 
*Equation 
4 
4024,1, 1 
368,1,-1 
3871,1,-1 
62,1, 1 
*Equation 
4 
4025,1, 1 
370,1,-1 
3871,1,-1 
62,1, 1 
*Equation 
4 
4026,1, 1 
372,1,-1 
3871,1,-1 
62,1, 1 
*Equation 
4 
4027,1, 1 
374,1,-1 
3871,1,-1 
62,1, 1 
*Equation 
4 
4028,1, 1 
376,1,-1 
3871,1,-1 
62,1, 1 
*Equation 
4 
4029,1, 1 
378,1,-1 
3871,1,-1 
62,1, 1 
*Equation 
4 
4030,1, 1 
380,1,-1 
3871,1,-1 
62,1, 1 
*Equation 
4 
4031,1, 1 
382,1,-1 
3871,1,-1 
62,1, 1 
*Equation 
4 
4033,1, 1 
388,1,-1 
3871,1,-1 
62,1, 1 
*Equation 
4 
4035,1, 1 
390,1,-1 
3871,1,-1 
62,1, 1 
*Equation 
4 
4036,1, 1 
392,1,-1 
3871,1,-1 
62,1, 1 
*Equation 
4 
4037,1, 1 
394,1,-1 
3871,1,-1 
62,1, 1 
*Equation 
4 
4038,1, 1 
396,1,-1 
3871,1,-1 
62,1, 1 
*Equation 
4 
4039,1, 1 
398,1,-1 
3871,1,-1 
62,1, 1 
*Equation 
4 
4040,1, 1 
400,1,-1 
3871,1,-1 
62,1, 1 
*Equation 
4 
4041,1, 1 
402,1,-1 
3871,1,-1 
62,1, 1 
*Equation 
4 
4042,1, 1 
404,1,-1 
3871,1,-1 
62,1, 1 
*Equation 
4 
4043,1, 1 
406,1,-1 
3871,1,-1 
62,1, 1 
*Equation 
4 
4044,1, 1 
408,1,-1 
3871,1,-1 
62,1, 1 
*Equation 
4 
4045,1, 1 
410,1,-1 
3871,1,-1 
62,1, 1 
*Equation 
4 
4046,1, 1 
412,1,-1 
3871,1,-1 
62,1, 1 
*Equation 
4 
4047,1, 1 
414,1,-1 
3871,1,-1 
62,1, 1 
*Equation 
4 
4049,1, 1 
420,1,-1 
3871,1,-1 
62,1, 1 
*Equation 
4 
4051,1, 1 
422,1,-1 
3871,1,-1 
62,1, 1 
*Equation 
4 
4052,1, 1 
424,1,-1 
3871,1,-1 
62,1, 1 
*Equation 
4 
4053,1, 1 
426,1,-1 
3871,1,-1 
62,1, 1 
*Equation 
4 
4054,1, 1 
428,1,-1 
3871,1,-1 
62,1, 1 
*Equation 
4 
4055,1, 1 
430,1,-1 
3871,1,-1 
62,1, 1 
*Equation 
4 
4056,1, 1 
432,1,-1 
3871,1,-1 
62,1, 1 
*Equation 
4 
4057,1, 1 
434,1,-1 
3871,1,-1 
62,1, 1 
*Equation 
4 
4058,1, 1 
436,1,-1 
3871,1,-1 
62,1, 1 
*Equation 
4 
4059,1, 1 
438,1,-1 
3871,1,-1 
62,1, 1 
*Equation 
4 
4060,1, 1 
440,1,-1 
3871,1,-1 
62,1, 1 
*Equation 
4 
4061,1, 1 
442,1,-1 
3871,1,-1 
62,1, 1 
*Equation 
4 
4062,1, 1 
444,1,-1 
3871,1,-1 
62,1, 1 
*Equation 
4 
4063,1, 1 
446,1,-1 
3871,1,-1 
62,1, 1 
*Equation 
4 
4065,1, 1 
452,1,-1 
3871,1,-1 
62,1, 1 
*Equation 
4 
4067,1, 1 
454,1,-1 
3871,1,-1 
62,1, 1 
*Equation 
4 
4068,1, 1 
456,1,-1 
3871,1,-1 
62,1, 1 
*Equation 
4 
4069,1, 1 
458,1,-1 
3871,1,-1 
62,1, 1 
*Equation 
4 
4070,1, 1 
460,1,-1 
3871,1,-1 
62,1, 1 
*Equation 
4 
4071,1, 1 
462,1,-1 
3871,1,-1 
62,1, 1 
*Equation 
4 
4072,1, 1 
464,1,-1 
3871,1,-1 
62,1, 1 
*Equation 
4 
4073,1, 1 
466,1,-1 
3871,1,-1 
62,1, 1 
*Equation 
4 
4074,1, 1 
468,1,-1 
3871,1,-1 
62,1, 1 
*Equation 
4 
4075,1, 1 
470,1,-1 
3871,1,-1 
62,1, 1 
*Equation 
4 
4076,1, 1 
472,1,-1 
3871,1,-1 
62,1, 1 
*Equation 
4 
4077,1, 1 
474,1,-1 
3871,1,-1 
62,1, 1 
*Equation 
4 
4078,1, 1 
476,1,-1 
3871,1,-1 
62,1, 1 
*Equation 
4 
4079,1, 1 
478,1,-1 
3871,1,-1 
62,1, 1 
**** 
**** Y-DIR 
*Equation 
4 
3843,2, 1 
8,2,-1 
3871,2,-1 
62,2, 1 
*Equation 
4 
3846,2, 1 
12,2,-1 
3871,2,-1 
62,2, 1 
*Equation 
4 
3848,2, 1 
16,2,-1 
3871,2,-1 
62,2, 1 
*Equation 
4 
3850,2, 1 
20,2,-1 
3871,2,-1 
62,2, 1 
*Equation 
4 
3852,2, 1 
24,2,-1 
3871,2,-1 
62,2, 1 
*Equation 
4 
3854,2, 1 
28,2,-1 
3871,2,-1 
62,2, 1 
*Equation 
4 
3856,2, 1 
32,2,-1 
3871,2,-1 
62,2, 1 
*Equation 
4 
3858,2, 1 
36,2,-1 
3871,2,-1 
62,2, 1 
*Equation 
4 
3860,2, 1 
40,2,-1 
3871,2,-1 
62,2, 1 
*Equation 
4 
3862,2, 1 
44,2,-1 
3871,2,-1 
62,2, 1 
*Equation 
4 
3864,2, 1 
48,2,-1 
3871,2,-1 
62,2, 1 
*Equation 
4 
3866,2, 1 
52,2,-1 
3871,2,-1 
62,2, 1 
*Equation 
4 
3868,2, 1 
56,2,-1 
3871,2,-1 
62,2, 1 
*Equation 
4 
3870,2, 1 
60,2,-1 
3871,2,-1 
62,2, 1 
*Equation 
4 
3873,2, 1 
68,2,-1 
3871,2,-1 
62,2, 1 
*Equation 
4 
3875,2, 1 
70,2,-1 
3871,2,-1 
62,2, 1 
*Equation 
4 
3876,2, 1 
72,2,-1 
3871,2,-1 
62,2, 1 
*Equation 
4 
3877,2, 1 
74,2,-1 
3871,2,-1 
62,2, 1 
*Equation 
4 
3878,2, 1 
76,2,-1 
3871,2,-1 
62,2, 1 
*Equation 
4 
3879,2, 1 
78,2,-1 
3871,2,-1 
62,2, 1 
*Equation 
4 
3880,2, 1 
80,2,-1 
3871,2,-1 
62,2, 1 
*Equation 
4 
3881,2, 1 
82,2,-1 
3871,2,-1 
62,2, 1 
*Equation 
4 
3882,2, 1 
84,2,-1 
3871,2,-1 
62,2, 1 
*Equation 
4 
3883,2, 1 
86,2,-1 
3871,2,-1 
62,2, 1 
*Equation 
4 
3884,2, 1 
88,2,-1 
3871,2,-1 
62,2, 1 
*Equation 
4 
3885,2, 1 
90,2,-1 
3871,2,-1 
62,2, 1 
*Equation 
4 
3886,2, 1 
92,2,-1 
3871,2,-1 
62,2, 1 
*Equation 
4 
3887,2, 1 
94,2,-1 
3871,2,-1 
62,2, 1 
*Equation 
4 
3889,2, 1 
100,2,-1 
3871,2,-1 
62,2, 1 
*Equation 
4 
3891,2, 1 
102,2,-1 
3871,2,-1 
62,2, 1 
*Equation 
4 
3892,2, 1 
104,2,-1 
3871,2,-1 
62,2, 1 
*Equation 
4 
3893,2, 1 
106,2,-1 
3871,2,-1 
62,2, 1 
*Equation 
4 
3894,2, 1 
108,2,-1 
3871,2,-1 
62,2, 1 
*Equation 
4 
3895,2, 1 
110,2,-1 
3871,2,-1 
62,2, 1 
*Equation 
4 
3896,2, 1 
112,2,-1 
3871,2,-1 
62,2, 1 
*Equation 
4 
3897,2, 1 
114,2,-1 
3871,2,-1 
62,2, 1 
*Equation 
4 
3898,2, 1 
116,2,-1 
3871,2,-1 
62,2, 1 
*Equation 
4 
3899,2, 1 
118,2,-1 
3871,2,-1 
62,2, 1 
*Equation 
4 
3900,2, 1 
120,2,-1 
3871,2,-1 
62,2, 1 
*Equation 
4 
3901,2, 1 
122,2,-1 
3871,2,-1 
62,2, 1 
*Equation 
4 
3902,2, 1 
124,2,-1 
3871,2,-1 
62,2, 1 
*Equation 
4 
3903,2, 1 
126,2,-1 
3871,2,-1 
62,2, 1 
*Equation 
4 
3905,2, 1 
132,2,-1 
3871,2,-1 
62,2, 1 
*Equation 
4 
3907,2, 1 
134,2,-1 
3871,2,-1 
62,2, 1 
*Equation 
4 
3908,2, 1 
136,2,-1 
3871,2,-1 
62,2, 1 
*Equation 
4 
3909,2, 1 
138,2,-1 
3871,2,-1 
62,2, 1 
*Equation 
4 
3910,2, 1 
140,2,-1 
3871,2,-1 
62,2, 1 
*Equation 
4 
3911,2, 1 
142,2,-1 
3871,2,-1 
62,2, 1 
*Equation 
4 
3912,2, 1 
144,2,-1 
3871,2,-1 
62,2, 1 
*Equation 
4 
3913,2, 1 
146,2,-1 
3871,2,-1 
62,2, 1 
*Equation 
4 
3914,2, 1 
148,2,-1 
3871,2,-1 
62,2, 1 
*Equation 
4 
3915,2, 1 
150,2,-1 
3871,2,-1 
62,2, 1 
*Equation 
4 
3916,2, 1 
152,2,-1 
3871,2,-1 
62,2, 1 
*Equation 
4 
3917,2, 1 
154,2,-1 
3871,2,-1 
62,2, 1 
*Equation 
4 
3918,2, 1 
156,2,-1 
3871,2,-1 
62,2, 1 
*Equation 
4 
3919,2, 1 
158,2,-1 
3871,2,-1 
62,2, 1 
*Equation 
4 
3921,2, 1 
164,2,-1 
3871,2,-1 
62,2, 1 
*Equation 
4 
3923,2, 1 
166,2,-1 
3871,2,-1 
62,2, 1 
*Equation 
4 
3924,2, 1 
168,2,-1 
3871,2,-1 
62,2, 1 
*Equation 
4 
3925,2, 1 
170,2,-1 
3871,2,-1 
62,2, 1 
*Equation 
4 
3926,2, 1 
172,2,-1 
3871,2,-1 
62,2, 1 
*Equation 
4 
3927,2, 1 
174,2,-1 
3871,2,-1 
62,2, 1 
*Equation 
4 
3928,2, 1 
176,2,-1 
3871,2,-1 
62,2, 1 
*Equation 
4 
3929,2, 1 
178,2,-1 
3871,2,-1 
62,2, 1 
*Equation 
4 
3930,2, 1 
180,2,-1 
3871,2,-1 
62,2, 1 
*Equation 
4 
3931,2, 1 
182,2,-1 
3871,2,-1 
62,2, 1 
*Equation 
4 
3932,2, 1 
184,2,-1 
3871,2,-1 
62,2, 1 
*Equation 
4 
3933,2, 1 
186,2,-1 
3871,2,-1 
62,2, 1 
*Equation 
4 
3934,2, 1 
188,2,-1 
3871,2,-1 
62,2, 1 
*Equation 
4 
3935,2, 1 
190,2,-1 
3871,2,-1 
62,2, 1 
*Equation 
4 
3937,2, 1 
196,2,-1 
3871,2,-1 
62,2, 1 
*Equation 
4 
3939,2, 1 
198,2,-1 
3871,2,-1 
62,2, 1 
*Equation 
4 
3940,2, 1 
200,2,-1 
3871,2,-1 
62,2, 1 
*Equation 
4 
3941,2, 1 
202,2,-1 
3871,2,-1 
62,2, 1 
*Equation 
4 
3942,2, 1 
204,2,-1 
3871,2,-1 
62,2, 1 
*Equation 
4 
3943,2, 1 
206,2,-1 
3871,2,-1 
62,2, 1 
*Equation 
4 
3944,2, 1 
208,2,-1 
3871,2,-1 
62,2, 1 
*Equation 
4 
3945,2, 1 
210,2,-1 
3871,2,-1 
62,2, 1 
*Equation 
4 
3946,2, 1 
212,2,-1 
3871,2,-1 
62,2, 1 
*Equation 
4 
3947,2, 1 
214,2,-1 
3871,2,-1 
62,2, 1 
*Equation 
4 
3948,2, 1 
216,2,-1 
3871,2,-1 
62,2, 1 
*Equation 
4 
3949,2, 1 
218,2,-1 
3871,2,-1 
62,2, 1 
*Equation 
4 
3950,2, 1 
220,2,-1 
3871,2,-1 
62,2, 1 
*Equation 
4 
3951,2, 1 
222,2,-1 
3871,2,-1 
62,2, 1 
*Equation 
4 
3953,2, 1 
228,2,-1 
3871,2,-1 
62,2, 1 
*Equation 
4 
3955,2, 1 
230,2,-1 
3871,2,-1 
62,2, 1 
*Equation 
4 
3956,2, 1 
232,2,-1 
3871,2,-1 
62,2, 1 
*Equation 
4 
3957,2, 1 
234,2,-1 
3871,2,-1 
62,2, 1 
*Equation 
4 
3958,2, 1 
236,2,-1 
3871,2,-1 
62,2, 1 
*Equation 
4 
3959,2, 1 
238,2,-1 
3871,2,-1 
62,2, 1 
*Equation 
4 
3960,2, 1 
240,2,-1 
3871,2,-1 
62,2, 1 
*Equation 
4 
3961,2, 1 
242,2,-1 
3871,2,-1 
62,2, 1 
*Equation 
4 
3962,2, 1 
244,2,-1 
3871,2,-1 
62,2, 1 
*Equation 
4 
3963,2, 1 
246,2,-1 
3871,2,-1 
62,2, 1 
*Equation 
4 
3964,2, 1 
248,2,-1 
3871,2,-1 
62,2, 1 
*Equation 
4 
3965,2, 1 
250,2,-1 
3871,2,-1 
62,2, 1 
*Equation 
4 
3966,2, 1 
252,2,-1 
3871,2,-1 
62,2, 1 
*Equation 
4 
3967,2, 1 
254,2,-1 
3871,2,-1 
62,2, 1 
*Equation 
4 
3969,2, 1 
260,2,-1 
3871,2,-1 
62,2, 1 
*Equation 
4 
3971,2, 1 
262,2,-1 
3871,2,-1 
62,2, 1 
*Equation 
4 
3972,2, 1 
264,2,-1 
3871,2,-1 
62,2, 1 
*Equation 
4 
3973,2, 1 
266,2,-1 
3871,2,-1 
62,2, 1 
*Equation 
4 
3974,2, 1 
268,2,-1 
3871,2,-1 
62,2, 1 
*Equation 
4 
3975,2, 1 
270,2,-1 
3871,2,-1 
62,2, 1 
*Equation 
4 
3976,2, 1 
272,2,-1 
3871,2,-1 
62,2, 1 
*Equation 
4 
3977,2, 1 
274,2,-1 
3871,2,-1 
62,2, 1 
*Equation 
4 
3978,2, 1 
276,2,-1 
3871,2,-1 
62,2, 1 
*Equation 
4 
3979,2, 1 
278,2,-1 
3871,2,-1 
62,2, 1 
*Equation 
4 
3980,2, 1 
280,2,-1 
3871,2,-1 
62,2, 1 
*Equation 
4 
3981,2, 1 
282,2,-1 
3871,2,-1 
62,2, 1 
*Equation 
4 
3982,2, 1 
284,2,-1 
3871,2,-1 
62,2, 1 
*Equation 
4 
3983,2, 1 
286,2,-1 
3871,2,-1 
62,2, 1 
*Equation 
4 
3985,2, 1 
292,2,-1 
3871,2,-1 
62,2, 1 
*Equation 
4 
3987,2, 1 
294,2,-1 
3871,2,-1 
62,2, 1 
*Equation 
4 
3988,2, 1 
296,2,-1 
3871,2,-1 
62,2, 1 
*Equation 
4 
3989,2, 1 
298,2,-1 
3871,2,-1 
62,2, 1 
*Equation 
4 
3990,2, 1 
300,2,-1 
3871,2,-1 
62,2, 1 
*Equation 
4 
3991,2, 1 
302,2,-1 
3871,2,-1 
62,2, 1 
*Equation 
4 
3992,2, 1 
304,2,-1 
3871,2,-1 
62,2, 1 
*Equation 
4 
3993,2, 1 
306,2,-1 
3871,2,-1 
62,2, 1 
*Equation 
4 
3994,2, 1 
308,2,-1 
3871,2,-1 
62,2, 1 
*Equation 
4 
3995,2, 1 
310,2,-1 
3871,2,-1 
62,2, 1 
*Equation 
4 
3996,2, 1 
312,2,-1 
3871,2,-1 
62,2, 1 
*Equation 
4 
3997,2, 1 
314,2,-1 
3871,2,-1 
62,2, 1 
*Equation 
4 
3998,2, 1 
316,2,-1 
3871,2,-1 
62,2, 1 
*Equation 
4 
3999,2, 1 
318,2,-1 
3871,2,-1 
62,2, 1 
*Equation 
4 
4001,2, 1 
324,2,-1 
3871,2,-1 
62,2, 1 
*Equation 
4 
4003,2, 1 
326,2,-1 
3871,2,-1 
62,2, 1 
*Equation 
4 
4004,2, 1 
328,2,-1 
3871,2,-1 
62,2, 1 
*Equation 
4 
4005,2, 1 
330,2,-1 
3871,2,-1 
62,2, 1 
*Equation 
4 
4006,2, 1 
332,2,-1 
3871,2,-1 
62,2, 1 
*Equation 
4 
4007,2, 1 
334,2,-1 
3871,2,-1 
62,2, 1 
*Equation 
4 
4008,2, 1 
336,2,-1 
3871,2,-1 
62,2, 1 
*Equation 
4 
4009,2, 1 
338,2,-1 
3871,2,-1 
62,2, 1 
*Equation 
4 
4010,2, 1 
340,2,-1 
3871,2,-1 
62,2, 1 
*Equation 
4 
4011,2, 1 
342,2,-1 
3871,2,-1 
62,2, 1 
*Equation 
4 
4012,2, 1 
344,2,-1 
3871,2,-1 
62,2, 1 
*Equation 
4 
4013,2, 1 
346,2,-1 
3871,2,-1 
62,2, 1 
*Equation 
4 
4014,2, 1 
348,2,-1 
3871,2,-1 
62,2, 1 
*Equation 
4 
4015,2, 1 
350,2,-1 
3871,2,-1 
62,2, 1 
*Equation 
4 
4017,2, 1 
356,2,-1 
3871,2,-1 
62,2, 1 
*Equation 
4 
4019,2, 1 
358,2,-1 
3871,2,-1 
62,2, 1 
*Equation 
4 
4020,2, 1 
360,2,-1 
3871,2,-1 
62,2, 1 
*Equation 
4 
4021,2, 1 
362,2,-1 
3871,2,-1 
62,2, 1 
*Equation 
4 
4022,2, 1 
364,2,-1 
3871,2,-1 
62,2, 1 
*Equation 
4 
4023,2, 1 
366,2,-1 
3871,2,-1 
62,2, 1 
*Equation 
4 
4024,2, 1 
368,2,-1 
3871,2,-1 
62,2, 1 
*Equation 
4 
4025,2, 1 
370,2,-1 
3871,2,-1 
62,2, 1 
*Equation 
4 
4026,2, 1 
372,2,-1 
3871,2,-1 
62,2, 1 
*Equation 
4 
4027,2, 1 
374,2,-1 
3871,2,-1 
62,2, 1 
*Equation 
4 
4028,2, 1 
376,2,-1 
3871,2,-1 
62,2, 1 
*Equation 
4 
4029,2, 1 
378,2,-1 
3871,2,-1 
62,2, 1 
*Equation 
4 
4030,2, 1 
380,2,-1 
3871,2,-1 
62,2, 1 
*Equation 
4 
4031,2, 1 
382,2,-1 
3871,2,-1 
62,2, 1 
*Equation 
4 
4033,2, 1 
388,2,-1 
3871,2,-1 
62,2, 1 
*Equation 
4 
4035,2, 1 
390,2,-1 
3871,2,-1 
62,2, 1 
*Equation 
4 
4036,2, 1 
392,2,-1 
3871,2,-1 
62,2, 1 
*Equation 
4 
4037,2, 1 
394,2,-1 
3871,2,-1 
62,2, 1 
*Equation 
4 
4038,2, 1 
396,2,-1 
3871,2,-1 
62,2, 1 
*Equation 
4 
4039,2, 1 
398,2,-1 
3871,2,-1 
62,2, 1 
*Equation 
4 
4040,2, 1 
400,2,-1 
3871,2,-1 
62,2, 1 
*Equation 
4 
4041,2, 1 
402,2,-1 
3871,2,-1 
62,2, 1 
*Equation 
4 
4042,2, 1 
404,2,-1 
3871,2,-1 
62,2, 1 
*Equation 
4 
4043,2, 1 
406,2,-1 
3871,2,-1 
62,2, 1 
*Equation 
4 
4044,2, 1 
408,2,-1 
3871,2,-1 
62,2, 1 
*Equation 
4 
4045,2, 1 
410,2,-1 
3871,2,-1 
62,2, 1 
*Equation 
4 
4046,2, 1 
412,2,-1 
3871,2,-1 
62,2, 1 
*Equation 
4 
4047,2, 1 
414,2,-1 
3871,2,-1 
62,2, 1 
*Equation 
4 
4049,2, 1 
420,2,-1 
3871,2,-1 
62,2, 1 
*Equation 
4 
4051,2, 1 
422,2,-1 
3871,2,-1 
62,2, 1 
*Equation 
4 
4052,2, 1 
424,2,-1 
3871,2,-1 
62,2, 1 
*Equation 
4 
4053,2, 1 
426,2,-1 
3871,2,-1 
62,2, 1 
*Equation 
4 
4054,2, 1 
428,2,-1 
3871,2,-1 
62,2, 1 
*Equation 
4 
4055,2, 1 
430,2,-1 
3871,2,-1 
62,2, 1 
*Equation 
4 
4056,2, 1 
432,2,-1 
3871,2,-1 
62,2, 1 
*Equation 
4 
4057,2, 1 
434,2,-1 
3871,2,-1 
62,2, 1 
*Equation 
4 
4058,2, 1 
436,2,-1 
3871,2,-1 
62,2, 1 
*Equation 
4 
4059,2, 1 
438,2,-1 
3871,2,-1 
62,2, 1 
*Equation 
4 
4060,2, 1 
440,2,-1 
3871,2,-1 
62,2, 1 
*Equation 
4 
4061,2, 1 
442,2,-1 
3871,2,-1 
62,2, 1 
*Equation 
4 
4062,2, 1 
444,2,-1 
3871,2,-1 
62,2, 1 
*Equation 
4 
4063,2, 1 
446,2,-1 
3871,2,-1 
62,2, 1 
*Equation 
4 
4065,2, 1 
452,2,-1 
3871,2,-1 
62,2, 1 
*Equation 
4 
4067,2, 1 
454,2,-1 
3871,2,-1 
62,2, 1 
*Equation 
4 
4068,2, 1 
456,2,-1 
3871,2,-1 
62,2, 1 
*Equation 
4 
4069,2, 1 
458,2,-1 
3871,2,-1 
62,2, 1 
*Equation 
4 
4070,2, 1 
460,2,-1 
3871,2,-1 
62,2, 1 
*Equation 
4 
4071,2, 1 
462,2,-1 
3871,2,-1 
62,2, 1 
*Equation 
4 
4072,2, 1 
464,2,-1 
3871,2,-1 
62,2, 1 
*Equation 
4 
4073,2, 1 
466,2,-1 
3871,2,-1 
62,2, 1 
*Equation 
4 
4074,2, 1 
468,2,-1 
3871,2,-1 
62,2, 1 
*Equation 
4 
4075,2, 1 
470,2,-1 
3871,2,-1 
62,2, 1 
*Equation 
4 
4076,2, 1 
472,2,-1 
3871,2,-1 
62,2, 1 
*Equation 
4 
4077,2, 1 
474,2,-1 
3871,2,-1 
62,2, 1 
*Equation 
4 
4078,2, 1 
476,2,-1 
3871,2,-1 
62,2, 1 
*Equation 
4 
4079,2, 1 
478,2,-1 
3871,2,-1 
62,2, 1 
**** 
**** Z-DIR 
*Equation 
4 
3843,3, 1 
8,3,-1 
3871,3,-1 
62,3, 1 
*Equation 
4 
3846,3, 1 
12,3,-1 
3871,3,-1 
62,3, 1 
*Equation 
4 
3848,3, 1 
16,3,-1 
3871,3,-1 
62,3, 1 
*Equation 
4 
3850,3, 1 
20,3,-1 
3871,3,-1 
62,3, 1 
*Equation 
4 
3852,3, 1 
24,3,-1 
3871,3,-1 
62,3, 1 
*Equation 
4 
3854,3, 1 
28,3,-1 
3871,3,-1 
62,3, 1 
*Equation 
4 
3856,3, 1 
32,3,-1 
3871,3,-1 
62,3, 1 
*Equation 
4 
3858,3, 1 
36,3,-1 
3871,3,-1 
62,3, 1 
*Equation 
4 
3860,3, 1 
40,3,-1 
3871,3,-1 
62,3, 1 
*Equation 
4 
3862,3, 1 
44,3,-1 
3871,3,-1 
62,3, 1 
*Equation 
4 
3864,3, 1 
48,3,-1 
3871,3,-1 
62,3, 1 
*Equation 
4 
3866,3, 1 
52,3,-1 
3871,3,-1 
62,3, 1 
*Equation 
4 
3868,3, 1 
56,3,-1 
3871,3,-1 
62,3, 1 
*Equation 
4 
3870,3, 1 
60,3,-1 
3871,3,-1 
62,3, 1 
*Equation 
4 
3873,3, 1 
68,3,-1 
3871,3,-1 
62,3, 1 
*Equation 
4 
3875,3, 1 
70,3,-1 
3871,3,-1 
62,3, 1 
*Equation 
4 
3876,3, 1 
72,3,-1 
3871,3,-1 
62,3, 1 
*Equation 
4 
3877,3, 1 
74,3,-1 
3871,3,-1 
62,3, 1 
*Equation 
4 
3878,3, 1 
76,3,-1 
3871,3,-1 
62,3, 1 
*Equation 
4 
3879,3, 1 
78,3,-1 
3871,3,-1 
62,3, 1 
*Equation 
4 
3880,3, 1 
80,3,-1 
3871,3,-1 
62,3, 1 
*Equation 
4 
3881,3, 1 
82,3,-1 
3871,3,-1 
62,3, 1 
*Equation 
4 
3882,3, 1 
84,3,-1 
3871,3,-1 
62,3, 1 
*Equation 
4 
3883,3, 1 
86,3,-1 
3871,3,-1 
62,3, 1 
*Equation 
4 
3884,3, 1 
88,3,-1 
3871,3,-1 
62,3, 1 
*Equation 
4 
3885,3, 1 
90,3,-1 
3871,3,-1 
62,3, 1 
*Equation 
4 
3886,3, 1 
92,3,-1 
3871,3,-1 
62,3, 1 
*Equation 
4 
3887,3, 1 
94,3,-1 
3871,3,-1 
62,3, 1 
*Equation 
4 
3889,3, 1 
100,3,-1 
3871,3,-1 
62,3, 1 
*Equation 
4 
3891,3, 1 
102,3,-1 
3871,3,-1 
62,3, 1 
*Equation 
4 
3892,3, 1 
104,3,-1 
3871,3,-1 
62,3, 1 
*Equation 
4 
3893,3, 1 
106,3,-1 
3871,3,-1 
62,3, 1 
*Equation 
4 
3894,3, 1 
108,3,-1 
3871,3,-1 
62,3, 1 
*Equation 
4 
3895,3, 1 
110,3,-1 
3871,3,-1 
62,3, 1 
*Equation 
4 
3896,3, 1 
112,3,-1 
3871,3,-1 
62,3, 1 
*Equation 
4 
3897,3, 1 
114,3,-1 
3871,3,-1 
62,3, 1 
*Equation 
4 
3898,3, 1 
116,3,-1 
3871,3,-1 
62,3, 1 
*Equation 
4 
3899,3, 1 
118,3,-1 
3871,3,-1 
62,3, 1 
*Equation 
4 
3900,3, 1 
120,3,-1 
3871,3,-1 
62,3, 1 
*Equation 
4 
3901,3, 1 
122,3,-1 
3871,3,-1 
62,3, 1 
*Equation 
4 
3902,3, 1 
124,3,-1 
3871,3,-1 
62,3, 1 
*Equation 
4 
3903,3, 1 
126,3,-1 
3871,3,-1 
62,3, 1 
*Equation 
4 
3905,3, 1 
132,3,-1 
3871,3,-1 
62,3, 1 
*Equation 
4 
3907,3, 1 
134,3,-1 
3871,3,-1 
62,3, 1 
*Equation 
4 
3908,3, 1 
136,3,-1 
3871,3,-1 
62,3, 1 
*Equation 
4 
3909,3, 1 
138,3,-1 
3871,3,-1 
62,3, 1 
*Equation 
4 
3910,3, 1 
140,3,-1 
3871,3,-1 
62,3, 1 
*Equation 
4 
3911,3, 1 
142,3,-1 
3871,3,-1 
62,3, 1 
*Equation 
4 
3912,3, 1 
144,3,-1 
3871,3,-1 
62,3, 1 
*Equation 
4 
3913,3, 1 
146,3,-1 
3871,3,-1 
62,3, 1 
*Equation 
4 
3914,3, 1 
148,3,-1 
3871,3,-1 
62,3, 1 
*Equation 
4 
3915,3, 1 
150,3,-1 
3871,3,-1 
62,3, 1 
*Equation 
4 
3916,3, 1 
152,3,-1 
3871,3,-1 
62,3, 1 
*Equation 
4 
3917,3, 1 
154,3,-1 
3871,3,-1 
62,3, 1 
*Equation 
4 
3918,3, 1 
156,3,-1 
3871,3,-1 
62,3, 1 
*Equation 
4 
3919,3, 1 
158,3,-1 
3871,3,-1 
62,3, 1 
*Equation 
4 
3921,3, 1 
164,3,-1 
3871,3,-1 
62,3, 1 
*Equation 
4 
3923,3, 1 
166,3,-1 
3871,3,-1 
62,3, 1 
*Equation 
4 
3924,3, 1 
168,3,-1 
3871,3,-1 
62,3, 1 
*Equation 
4 
3925,3, 1 
170,3,-1 
3871,3,-1 
62,3, 1 
*Equation 
4 
3926,3, 1 
172,3,-1 
3871,3,-1 
62,3, 1 
*Equation 
4 
3927,3, 1 
174,3,-1 
3871,3,-1 
62,3, 1 
*Equation 
4 
3928,3, 1 
176,3,-1 
3871,3,-1 
62,3, 1 
*Equation 
4 
3929,3, 1 
178,3,-1 
3871,3,-1 
62,3, 1 
*Equation 
4 
3930,3, 1 
180,3,-1 
3871,3,-1 
62,3, 1 
*Equation 
4 
3931,3, 1 
182,3,-1 
3871,3,-1 
62,3, 1 
*Equation 
4 
3932,3, 1 
184,3,-1 
3871,3,-1 
62,3, 1 
*Equation 
4 
3933,3, 1 
186,3,-1 
3871,3,-1 
62,3, 1 
*Equation 
4 
3934,3, 1 
188,3,-1 
3871,3,-1 
62,3, 1 
*Equation 
4 
3935,3, 1 
190,3,-1 
3871,3,-1 
62,3, 1 
*Equation 
4 
3937,3, 1 
196,3,-1 
3871,3,-1 
62,3, 1 
*Equation 
4 
3939,3, 1 
198,3,-1 
3871,3,-1 
62,3, 1 
*Equation 
4 
3940,3, 1 
200,3,-1 
3871,3,-1 
62,3, 1 
*Equation 
4 
3941,3, 1 
202,3,-1 
3871,3,-1 
62,3, 1 
*Equation 
4 
3942,3, 1 
204,3,-1 
3871,3,-1 
62,3, 1 
*Equation 
4 
3943,3, 1 
206,3,-1 
3871,3,-1 
62,3, 1 
*Equation 
4 
3944,3, 1 
208,3,-1 
3871,3,-1 
62,3, 1 
*Equation 
4 
3945,3, 1 
210,3,-1 
3871,3,-1 
62,3, 1 
*Equation 
4 
3946,3, 1 
212,3,-1 
3871,3,-1 
62,3, 1 
*Equation 
4 
3947,3, 1 
214,3,-1 
3871,3,-1 
62,3, 1 
*Equation 
4 
3948,3, 1 
216,3,-1 
3871,3,-1 
62,3, 1 
*Equation 
4 
3949,3, 1 
218,3,-1 
3871,3,-1 
62,3, 1 
*Equation 
4 
3950,3, 1 
220,3,-1 
3871,3,-1 
62,3, 1 
*Equation 
4 
3951,3, 1 
222,3,-1 
3871,3,-1 
62,3, 1 
*Equation 
4 
3953,3, 1 
228,3,-1 
3871,3,-1 
62,3, 1 
*Equation 
4 
3955,3, 1 
230,3,-1 
3871,3,-1 
62,3, 1 
*Equation 
4 
3956,3, 1 
232,3,-1 
3871,3,-1 
62,3, 1 
*Equation 
4 
3957,3, 1 
234,3,-1 
3871,3,-1 
62,3, 1 
*Equation 
4 
3958,3, 1 
236,3,-1 
3871,3,-1 
62,3, 1 
*Equation 
4 
3959,3, 1 
238,3,-1 
3871,3,-1 
62,3, 1 
*Equation 
4 
3960,3, 1 
240,3,-1 
3871,3,-1 
62,3, 1 
*Equation 
4 
3961,3, 1 
242,3,-1 
3871,3,-1 
62,3, 1 
*Equation 
4 
3962,3, 1 
244,3,-1 
3871,3,-1 
62,3, 1 
*Equation 
4 
3963,3, 1 
246,3,-1 
3871,3,-1 
62,3, 1 
*Equation 
4 
3964,3, 1 
248,3,-1 
3871,3,-1 
62,3, 1 
*Equation 
4 
3965,3, 1 
250,3,-1 
3871,3,-1 
62,3, 1 
*Equation 
4 
3966,3, 1 
252,3,-1 
3871,3,-1 
62,3, 1 
*Equation 
4 
3967,3, 1 
254,3,-1 
3871,3,-1 
62,3, 1 
*Equation 
4 
3969,3, 1 
260,3,-1 
3871,3,-1 
62,3, 1 
*Equation 
4 
3971,3, 1 
262,3,-1 
3871,3,-1 
62,3, 1 
*Equation 
4 
3972,3, 1 
264,3,-1 
3871,3,-1 
62,3, 1 
*Equation 
4 
3973,3, 1 
266,3,-1 
3871,3,-1 
62,3, 1 
*Equation 
4 
3974,3, 1 
268,3,-1 
3871,3,-1 
62,3, 1 
*Equation 
4 
3975,3, 1 
270,3,-1 
3871,3,-1 
62,3, 1 
*Equation 
4 
3976,3, 1 
272,3,-1 
3871,3,-1 
62,3, 1 
*Equation 
4 
3977,3, 1 
274,3,-1 
3871,3,-1 
62,3, 1 
*Equation 
4 
3978,3, 1 
276,3,-1 
3871,3,-1 
62,3, 1 
*Equation 
4 
3979,3, 1 
278,3,-1 
3871,3,-1 
62,3, 1 
*Equation 
4 
3980,3, 1 
280,3,-1 
3871,3,-1 
62,3, 1 
*Equation 
4 
3981,3, 1 
282,3,-1 
3871,3,-1 
62,3, 1 
*Equation 
4 
3982,3, 1 
284,3,-1 
3871,3,-1 
62,3, 1 
*Equation 
4 
3983,3, 1 
286,3,-1 
3871,3,-1 
62,3, 1 
*Equation 
4 
3985,3, 1 
292,3,-1 
3871,3,-1 
62,3, 1 
*Equation 
4 
3987,3, 1 
294,3,-1 
3871,3,-1 
62,3, 1 
*Equation 
4 
3988,3, 1 
296,3,-1 
3871,3,-1 
62,3, 1 
*Equation 
4 
3989,3, 1 
298,3,-1 
3871,3,-1 
62,3, 1 
*Equation 
4 
3990,3, 1 
300,3,-1 
3871,3,-1 
62,3, 1 
*Equation 
4 
3991,3, 1 
302,3,-1 
3871,3,-1 
62,3, 1 
*Equation 
4 
3992,3, 1 
304,3,-1 
3871,3,-1 
62,3, 1 
*Equation 
4 
3993,3, 1 
306,3,-1 
3871,3,-1 
62,3, 1 
*Equation 
4 
3994,3, 1 
308,3,-1 
3871,3,-1 
62,3, 1 
*Equation 
4 
3995,3, 1 
310,3,-1 
3871,3,-1 
62,3, 1 
*Equation 
4 
3996,3, 1 
312,3,-1 
3871,3,-1 
62,3, 1 
*Equation 
4 
3997,3, 1 
314,3,-1 
3871,3,-1 
62,3, 1 
*Equation 
4 
3998,3, 1 
316,3,-1 
3871,3,-1 
62,3, 1 
*Equation 
4 
3999,3, 1 
318,3,-1 
3871,3,-1 
62,3, 1 
*Equation 
4 
4001,3, 1 
324,3,-1 
3871,3,-1 
62,3, 1 
*Equation 
4 
4003,3, 1 
326,3,-1 
3871,3,-1 
62,3, 1 
*Equation 
4 
4004,3, 1 
328,3,-1 
3871,3,-1 
62,3, 1 
*Equation 
4 
4005,3, 1 
330,3,-1 
3871,3,-1 
62,3, 1 
*Equation 
4 
4006,3, 1 
332,3,-1 
3871,3,-1 
62,3, 1 
*Equation 
4 
4007,3, 1 
334,3,-1 
3871,3,-1 
62,3, 1 
*Equation 
4 
4008,3, 1 
336,3,-1 
3871,3,-1 
62,3, 1 
*Equation 
4 
4009,3, 1 
338,3,-1 
3871,3,-1 
62,3, 1 
*Equation 
4 
4010,3, 1 
340,3,-1 
3871,3,-1 
62,3, 1 
*Equation 
4 
4011,3, 1 
342,3,-1 
3871,3,-1 
62,3, 1 
*Equation 
4 
4012,3, 1 
344,3,-1 
3871,3,-1 
62,3, 1 
*Equation 
4 
4013,3, 1 
346,3,-1 
3871,3,-1 
62,3, 1 
*Equation 
4 
4014,3, 1 
348,3,-1 
3871,3,-1 
62,3, 1 
*Equation 
4 
4015,3, 1 
350,3,-1 
3871,3,-1 
62,3, 1 
*Equation 
4 
4017,3, 1 
356,3,-1 
3871,3,-1 
62,3, 1 
*Equation 
4 
4019,3, 1 
358,3,-1 
3871,3,-1 
62,3, 1 
*Equation 
4 
4020,3, 1 
360,3,-1 
3871,3,-1 
62,3, 1 
*Equation 
4 
4021,3, 1 
362,3,-1 
3871,3,-1 
62,3, 1 
*Equation 
4 
4022,3, 1 
364,3,-1 
3871,3,-1 
62,3, 1 
*Equation 
4 
4023,3, 1 
366,3,-1 
3871,3,-1 
62,3, 1 
*Equation 
4 
4024,3, 1 
368,3,-1 
3871,3,-1 
62,3, 1 
*Equation 
4 
4025,3, 1 
370,3,-1 
3871,3,-1 
62,3, 1 
*Equation 
4 
4026,3, 1 
372,3,-1 
3871,3,-1 
62,3, 1 
*Equation 
4 
4027,3, 1 
374,3,-1 
3871,3,-1 
62,3, 1 
*Equation 
4 
4028,3, 1 
376,3,-1 
3871,3,-1 
62,3, 1 
*Equation 
4 
4029,3, 1 
378,3,-1 
3871,3,-1 
62,3, 1 
*Equation 
4 
4030,3, 1 
380,3,-1 
3871,3,-1 
62,3, 1 
*Equation 
4 
4031,3, 1 
382,3,-1 
3871,3,-1 
62,3, 1 
*Equation 
4 
4033,3, 1 
388,3,-1 
3871,3,-1 
62,3, 1 
*Equation 
4 
4035,3, 1 
390,3,-1 
3871,3,-1 
62,3, 1 
*Equation 
4 
4036,3, 1 
392,3,-1 
3871,3,-1 
62,3, 1 
*Equation 
4 
4037,3, 1 
394,3,-1 
3871,3,-1 
62,3, 1 
*Equation 
4 
4038,3, 1 
396,3,-1 
3871,3,-1 
62,3, 1 
*Equation 
4 
4039,3, 1 
398,3,-1 
3871,3,-1 
62,3, 1 
*Equation 
4 
4040,3, 1 
400,3,-1 
3871,3,-1 
62,3, 1 
*Equation 
4 
4041,3, 1 
402,3,-1 
3871,3,-1 
62,3, 1 
*Equation 
4 
4042,3, 1 
404,3,-1 
3871,3,-1 
62,3, 1 
*Equation 
4 
4043,3, 1 
406,3,-1 
3871,3,-1 
62,3, 1 
*Equation 
4 
4044,3, 1 
408,3,-1 
3871,3,-1 
62,3, 1 
*Equation 
4 
4045,3, 1 
410,3,-1 
3871,3,-1 
62,3, 1 
*Equation 
4 
4046,3, 1 
412,3,-1 
3871,3,-1 
62,3, 1 
*Equation 
4 
4047,3, 1 
414,3,-1 
3871,3,-1 
62,3, 1 
*Equation 
4 
4049,3, 1 
420,3,-1 
3871,3,-1 
62,3, 1 
*Equation 
4 
4051,3, 1 
422,3,-1 
3871,3,-1 
62,3, 1 
*Equation 
4 
4052,3, 1 
424,3,-1 
3871,3,-1 
62,3, 1 
*Equation 
4 
4053,3, 1 
426,3,-1 
3871,3,-1 
62,3, 1 
*Equation 
4 
4054,3, 1 
428,3,-1 
3871,3,-1 
62,3, 1 
*Equation 
4 
4055,3, 1 
430,3,-1 
3871,3,-1 
62,3, 1 
*Equation 
4 
4056,3, 1 
432,3,-1 
3871,3,-1 
62,3, 1 
*Equation 
4 
4057,3, 1 
434,3,-1 
3871,3,-1 
62,3, 1 
*Equation 
4 
4058,3, 1 
436,3,-1 
3871,3,-1 
62,3, 1 
*Equation 
4 
4059,3, 1 
438,3,-1 
3871,3,-1 
62,3, 1 
*Equation 
4 
4060,3, 1 
440,3,-1 
3871,3,-1 
62,3, 1 
*Equation 
4 
4061,3, 1 
442,3,-1 
3871,3,-1 
62,3, 1 
*Equation 
4 
4062,3, 1 
444,3,-1 
3871,3,-1 
62,3, 1 
*Equation 
4 
4063,3, 1 
446,3,-1 
3871,3,-1 
62,3, 1 
*Equation 
4 
4065,3, 1 
452,3,-1 
3871,3,-1 
62,3, 1 
*Equation 
4 
4067,3, 1 
454,3,-1 
3871,3,-1 
62,3, 1 
*Equation 
4 
4068,3, 1 
456,3,-1 
3871,3,-1 
62,3, 1 
*Equation 
4 
4069,3, 1 
458,3,-1 
3871,3,-1 
62,3, 1 
*Equation 
4 
4070,3, 1 
460,3,-1 
3871,3,-1 
62,3, 1 
*Equation 
4 
4071,3, 1 
462,3,-1 
3871,3,-1 
62,3, 1 
*Equation 
4 
4072,3, 1 
464,3,-1 
3871,3,-1 
62,3, 1 
*Equation 
4 
4073,3, 1 
466,3,-1 
3871,3,-1 
62,3, 1 
*Equation 
4 
4074,3, 1 
468,3,-1 
3871,3,-1 
62,3, 1 
*Equation 
4 
4075,3, 1 
470,3,-1 
3871,3,-1 
62,3, 1 
*Equation 
4 
4076,3, 1 
472,3,-1 
3871,3,-1 
62,3, 1 
*Equation 
4 
4077,3, 1 
474,3,-1 
3871,3,-1 
62,3, 1 
*Equation 
4 
4078,3, 1 
476,3,-1 
3871,3,-1 
62,3, 1 
*Equation 
4 
4079,3, 1 
478,3,-1 
3871,3,-1 
62,3, 1 
**** Bottom to Top 
**** X-DIR 
*Equation 
4 
1,1, 1 
481,1,-1 
62,1,-1 
512,1, 1 
*Equation 
4 
9,1, 1 
485,1,-1 
62,1,-1 
512,1, 1 
*Equation 
4 
13,1, 1 
487,1,-1 
62,1,-1 
512,1, 1 
*Equation 
4 
17,1, 1 
489,1,-1 
62,1,-1 
512,1, 1 
*Equation 
4 
21,1, 1 
491,1,-1 
62,1,-1 
512,1, 1 
*Equation 
4 
25,1, 1 
493,1,-1 
62,1,-1 
512,1, 1 
*Equation 
4 
29,1, 1 
495,1,-1 
62,1,-1 
512,1, 1 
*Equation 
4 
33,1, 1 
497,1,-1 
62,1,-1 
512,1, 1 
*Equation 
4 
37,1, 1 
499,1,-1 
62,1,-1 
512,1, 1 
*Equation 
4 
41,1, 1 
501,1,-1 
62,1,-1 
512,1, 1 
*Equation 
4 
45,1, 1 
503,1,-1 
62,1,-1 
512,1, 1 
*Equation 
4 
49,1, 1 
505,1,-1 
62,1,-1 
512,1, 1 
*Equation 
4 
53,1, 1 
507,1,-1 
62,1,-1 
512,1, 1 
*Equation 
4 
57,1, 1 
509,1,-1 
62,1,-1 
512,1, 1 
*Equation 
4 
513,1, 1 
753,1,-1 
62,1,-1 
512,1, 1 
*Equation 
4 
517,1, 1 
755,1,-1 
62,1,-1 
512,1, 1 
*Equation 
4 
519,1, 1 
756,1,-1 
62,1,-1 
512,1, 1 
*Equation 
4 
521,1, 1 
757,1,-1 
62,1,-1 
512,1, 1 
*Equation 
4 
523,1, 1 
758,1,-1 
62,1,-1 
512,1, 1 
*Equation 
4 
525,1, 1 
759,1,-1 
62,1,-1 
512,1, 1 
*Equation 
4 
527,1, 1 
760,1,-1 
62,1,-1 
512,1, 1 
*Equation 
4 
529,1, 1 
761,1,-1 
62,1,-1 
512,1, 1 
*Equation 
4 
531,1, 1 
762,1,-1 
62,1,-1 
512,1, 1 
*Equation 
4 
533,1, 1 
763,1,-1 
62,1,-1 
512,1, 1 
*Equation 
4 
535,1, 1 
764,1,-1 
62,1,-1 
512,1, 1 
*Equation 
4 
537,1, 1 
765,1,-1 
62,1,-1 
512,1, 1 
*Equation 
4 
539,1, 1 
766,1,-1 
62,1,-1 
512,1, 1 
*Equation 
4 
541,1, 1 
767,1,-1 
62,1,-1 
512,1, 1 
*Equation 
4 
769,1, 1 
1009,1,-1 
62,1,-1 
512,1, 1 
*Equation 
4 
773,1, 1 
1011,1,-1 
62,1,-1 
512,1, 1 
*Equation 
4 
775,1, 1 
1012,1,-1 
62,1,-1 
512,1, 1 
*Equation 
4 
777,1, 1 
1013,1,-1 
62,1,-1 
512,1, 1 
*Equation 
4 
779,1, 1 
1014,1,-1 
62,1,-1 
512,1, 1 
*Equation 
4 
781,1, 1 
1015,1,-1 
62,1,-1 
512,1, 1 
*Equation 
4 
783,1, 1 
1016,1,-1 
62,1,-1 
512,1, 1 
*Equation 
4 
785,1, 1 
1017,1,-1 
62,1,-1 
512,1, 1 
*Equation 
4 
787,1, 1 
1018,1,-1 
62,1,-1 
512,1, 1 
*Equation 
4 
789,1, 1 
1019,1,-1 
62,1,-1 
512,1, 1 
*Equation 
4 
791,1, 1 
1020,1,-1 
62,1,-1 
512,1, 1 
*Equation 
4 
793,1, 1 
1021,1,-1 
62,1,-1 
512,1, 1 
*Equation 
4 
795,1, 1 
1022,1,-1 
62,1,-1 
512,1, 1 
*Equation 
4 
797,1, 1 
1023,1,-1 
62,1,-1 
512,1, 1 
*Equation 
4 
1025,1, 1 
1265,1,-1 
62,1,-1 
512,1, 1 
*Equation 
4 
1029,1, 1 
1267,1,-1 
62,1,-1 
512,1, 1 
*Equation 
4 
1031,1, 1 
1268,1,-1 
62,1,-1 
512,1, 1 
*Equation 
4 
1033,1, 1 
1269,1,-1 
62,1,-1 
512,1, 1 
*Equation 
4 
1035,1, 1 
1270,1,-1 
62,1,-1 
512,1, 1 
*Equation 
4 
1037,1, 1 
1271,1,-1 
62,1,-1 
512,1, 1 
*Equation 
4 
1039,1, 1 
1272,1,-1 
62,1,-1 
512,1, 1 
*Equation 
4 
1041,1, 1 
1273,1,-1 
62,1,-1 
512,1, 1 
*Equation 
4 
1043,1, 1 
1274,1,-1 
62,1,-1 
512,1, 1 
*Equation 
4 
1045,1, 1 
1275,1,-1 
62,1,-1 
512,1, 1 
*Equation 
4 
1047,1, 1 
1276,1,-1 
62,1,-1 
512,1, 1 
*Equation 
4 
1049,1, 1 
1277,1,-1 
62,1,-1 
512,1, 1 
*Equation 
4 
1051,1, 1 
1278,1,-1 
62,1,-1 
512,1, 1 
*Equation 
4 
1053,1, 1 
1279,1,-1 
62,1,-1 
512,1, 1 
*Equation 
4 
1281,1, 1 
1521,1,-1 
62,1,-1 
512,1, 1 
*Equation 
4 
1285,1, 1 
1523,1,-1 
62,1,-1 
512,1, 1 
*Equation 
4 
1287,1, 1 
1524,1,-1 
62,1,-1 
512,1, 1 
*Equation 
4 
1289,1, 1 
1525,1,-1 
62,1,-1 
512,1, 1 
*Equation 
4 
1291,1, 1 
1526,1,-1 
62,1,-1 
512,1, 1 
*Equation 
4 
1293,1, 1 
1527,1,-1 
62,1,-1 
512,1, 1 
*Equation 
4 
1295,1, 1 
1528,1,-1 
62,1,-1 
512,1, 1 
*Equation 
4 
1297,1, 1 
1529,1,-1 
62,1,-1 
512,1, 1 
*Equation 
4 
1299,1, 1 
1530,1,-1 
62,1,-1 
512,1, 1 
*Equation 
4 
1301,1, 1 
1531,1,-1 
62,1,-1 
512,1, 1 
*Equation 
4 
1303,1, 1 
1532,1,-1 
62,1,-1 
512,1, 1 
*Equation 
4 
1305,1, 1 
1533,1,-1 
62,1,-1 
512,1, 1 
*Equation 
4 
1307,1, 1 
1534,1,-1 
62,1,-1 
512,1, 1 
*Equation 
4 
1309,1, 1 
1535,1,-1 
62,1,-1 
512,1, 1 
*Equation 
4 
1537,1, 1 
1777,1,-1 
62,1,-1 
512,1, 1 
*Equation 
4 
1541,1, 1 
1779,1,-1 
62,1,-1 
512,1, 1 
*Equation 
4 
1543,1, 1 
1780,1,-1 
62,1,-1 
512,1, 1 
*Equation 
4 
1545,1, 1 
1781,1,-1 
62,1,-1 
512,1, 1 
*Equation 
4 
1547,1, 1 
1782,1,-1 
62,1,-1 
512,1, 1 
*Equation 
4 
1549,1, 1 
1783,1,-1 
62,1,-1 
512,1, 1 
*Equation 
4 
1551,1, 1 
1784,1,-1 
62,1,-1 
512,1, 1 
*Equation 
4 
1553,1, 1 
1785,1,-1 
62,1,-1 
512,1, 1 
*Equation 
4 
1555,1, 1 
1786,1,-1 
62,1,-1 
512,1, 1 
*Equation 
4 
1557,1, 1 
1787,1,-1 
62,1,-1 
512,1, 1 
*Equation 
4 
1559,1, 1 
1788,1,-1 
62,1,-1 
512,1, 1 
*Equation 
4 
1561,1, 1 
1789,1,-1 
62,1,-1 
512,1, 1 
*Equation 
4 
1563,1, 1 
1790,1,-1 
62,1,-1 
512,1, 1 
*Equation 
4 
1565,1, 1 
1791,1,-1 
62,1,-1 
512,1, 1 
*Equation 
4 
1793,1, 1 
2033,1,-1 
62,1,-1 
512,1, 1 
*Equation 
4 
1797,1, 1 
2035,1,-1 
62,1,-1 
512,1, 1 
*Equation 
4 
1799,1, 1 
2036,1,-1 
62,1,-1 
512,1, 1 
*Equation 
4 
1801,1, 1 
2037,1,-1 
62,1,-1 
512,1, 1 
*Equation 
4 
1803,1, 1 
2038,1,-1 
62,1,-1 
512,1, 1 
*Equation 
4 
1805,1, 1 
2039,1,-1 
62,1,-1 
512,1, 1 
*Equation 
4 
1807,1, 1 
2040,1,-1 
62,1,-1 
512,1, 1 
*Equation 
4 
1809,1, 1 
2041,1,-1 
62,1,-1 
512,1, 1 
*Equation 
4 
1811,1, 1 
2042,1,-1 
62,1,-1 
512,1, 1 
*Equation 
4 
1813,1, 1 
2043,1,-1 
62,1,-1 
512,1, 1 
*Equation 
4 
1815,1, 1 
2044,1,-1 
62,1,-1 
512,1, 1 
*Equation 
4 
1817,1, 1 
2045,1,-1 
62,1,-1 
512,1, 1 
*Equation 
4 
1819,1, 1 
2046,1,-1 
62,1,-1 
512,1, 1 
*Equation 
4 
1821,1, 1 
2047,1,-1 
62,1,-1 
512,1, 1 
*Equation 
4 
2049,1, 1 
2289,1,-1 
62,1,-1 
512,1, 1 
*Equation 
4 
2053,1, 1 
2291,1,-1 
62,1,-1 
512,1, 1 
*Equation 
4 
2055,1, 1 
2292,1,-1 
62,1,-1 
512,1, 1 
*Equation 
4 
2057,1, 1 
2293,1,-1 
62,1,-1 
512,1, 1 
*Equation 
4 
2059,1, 1 
2294,1,-1 
62,1,-1 
512,1, 1 
*Equation 
4 
2061,1, 1 
2295,1,-1 
62,1,-1 
512,1, 1 
*Equation 
4 
2063,1, 1 
2296,1,-1 
62,1,-1 
512,1, 1 
*Equation 
4 
2065,1, 1 
2297,1,-1 
62,1,-1 
512,1, 1 
*Equation 
4 
2067,1, 1 
2298,1,-1 
62,1,-1 
512,1, 1 
*Equation 
4 
2069,1, 1 
2299,1,-1 
62,1,-1 
512,1, 1 
*Equation 
4 
2071,1, 1 
2300,1,-1 
62,1,-1 
512,1, 1 
*Equation 
4 
2073,1, 1 
2301,1,-1 
62,1,-1 
512,1, 1 
*Equation 
4 
2075,1, 1 
2302,1,-1 
62,1,-1 
512,1, 1 
*Equation 
4 
2077,1, 1 
2303,1,-1 
62,1,-1 
512,1, 1 
*Equation 
4 
2305,1, 1 
2545,1,-1 
62,1,-1 
512,1, 1 
*Equation 
4 
2309,1, 1 
2547,1,-1 
62,1,-1 
512,1, 1 
*Equation 
4 
2311,1, 1 
2548,1,-1 
62,1,-1 
512,1, 1 
*Equation 
4 
2313,1, 1 
2549,1,-1 
62,1,-1 
512,1, 1 
*Equation 
4 
2315,1, 1 
2550,1,-1 
62,1,-1 
512,1, 1 
*Equation 
4 
2317,1, 1 
2551,1,-1 
62,1,-1 
512,1, 1 
*Equation 
4 
2319,1, 1 
2552,1,-1 
62,1,-1 
512,1, 1 
*Equation 
4 
2321,1, 1 
2553,1,-1 
62,1,-1 
512,1, 1 
*Equation 
4 
2323,1, 1 
2554,1,-1 
62,1,-1 
512,1, 1 
*Equation 
4 
2325,1, 1 
2555,1,-1 
62,1,-1 
512,1, 1 
*Equation 
4 
2327,1, 1 
2556,1,-1 
62,1,-1 
512,1, 1 
*Equation 
4 
2329,1, 1 
2557,1,-1 
62,1,-1 
512,1, 1 
*Equation 
4 
2331,1, 1 
2558,1,-1 
62,1,-1 
512,1, 1 
*Equation 
4 
2333,1, 1 
2559,1,-1 
62,1,-1 
512,1, 1 
*Equation 
4 
2561,1, 1 
2801,1,-1 
62,1,-1 
512,1, 1 
*Equation 
4 
2565,1, 1 
2803,1,-1 
62,1,-1 
512,1, 1 
*Equation 
4 
2567,1, 1 
2804,1,-1 
62,1,-1 
512,1, 1 
*Equation 
4 
2569,1, 1 
2805,1,-1 
62,1,-1 
512,1, 1 
*Equation 
4 
2571,1, 1 
2806,1,-1 
62,1,-1 
512,1, 1 
*Equation 
4 
2573,1, 1 
2807,1,-1 
62,1,-1 
512,1, 1 
*Equation 
4 
2575,1, 1 
2808,1,-1 
62,1,-1 
512,1, 1 
*Equation 
4 
2577,1, 1 
2809,1,-1 
62,1,-1 
512,1, 1 
*Equation 
4 
2579,1, 1 
2810,1,-1 
62,1,-1 
512,1, 1 
*Equation 
4 
2581,1, 1 
2811,1,-1 
62,1,-1 
512,1, 1 
*Equation 
4 
2583,1, 1 
2812,1,-1 
62,1,-1 
512,1, 1 
*Equation 
4 
2585,1, 1 
2813,1,-1 
62,1,-1 
512,1, 1 
*Equation 
4 
2587,1, 1 
2814,1,-1 
62,1,-1 
512,1, 1 
*Equation 
4 
2589,1, 1 
2815,1,-1 
62,1,-1 
512,1, 1 
*Equation 
4 
2817,1, 1 
3057,1,-1 
62,1,-1 
512,1, 1 
*Equation 
4 
2821,1, 1 
3059,1,-1 
62,1,-1 
512,1, 1 
*Equation 
4 
2823,1, 1 
3060,1,-1 
62,1,-1 
512,1, 1 
*Equation 
4 
2825,1, 1 
3061,1,-1 
62,1,-1 
512,1, 1 
*Equation 
4 
2827,1, 1 
3062,1,-1 
62,1,-1 
512,1, 1 
*Equation 
4 
2829,1, 1 
3063,1,-1 
62,1,-1 
512,1, 1 
*Equation 
4 
2831,1, 1 
3064,1,-1 
62,1,-1 
512,1, 1 
*Equation 
4 
2833,1, 1 
3065,1,-1 
62,1,-1 
512,1, 1 
*Equation 
4 
2835,1, 1 
3066,1,-1 
62,1,-1 
512,1, 1 
*Equation 
4 
2837,1, 1 
3067,1,-1 
62,1,-1 
512,1, 1 
*Equation 
4 
2839,1, 1 
3068,1,-1 
62,1,-1 
512,1, 1 
*Equation 
4 
2841,1, 1 
3069,1,-1 
62,1,-1 
512,1, 1 
*Equation 
4 
2843,1, 1 
3070,1,-1 
62,1,-1 
512,1, 1 
*Equation 
4 
2845,1, 1 
3071,1,-1 
62,1,-1 
512,1, 1 
*Equation 
4 
3073,1, 1 
3313,1,-1 
62,1,-1 
512,1, 1 
*Equation 
4 
3077,1, 1 
3315,1,-1 
62,1,-1 
512,1, 1 
*Equation 
4 
3079,1, 1 
3316,1,-1 
62,1,-1 
512,1, 1 
*Equation 
4 
3081,1, 1 
3317,1,-1 
62,1,-1 
512,1, 1 
*Equation 
4 
3083,1, 1 
3318,1,-1 
62,1,-1 
512,1, 1 
*Equation 
4 
3085,1, 1 
3319,1,-1 
62,1,-1 
512,1, 1 
*Equation 
4 
3087,1, 1 
3320,1,-1 
62,1,-1 
512,1, 1 
*Equation 
4 
3089,1, 1 
3321,1,-1 
62,1,-1 
512,1, 1 
*Equation 
4 
3091,1, 1 
3322,1,-1 
62,1,-1 
512,1, 1 
*Equation 
4 
3093,1, 1 
3323,1,-1 
62,1,-1 
512,1, 1 
*Equation 
4 
3095,1, 1 
3324,1,-1 
62,1,-1 
512,1, 1 
*Equation 
4 
3097,1, 1 
3325,1,-1 
62,1,-1 
512,1, 1 
*Equation 
4 
3099,1, 1 
3326,1,-1 
62,1,-1 
512,1, 1 
*Equation 
4 
3101,1, 1 
3327,1,-1 
62,1,-1 
512,1, 1 
*Equation 
4 
3329,1, 1 
3569,1,-1 
62,1,-1 
512,1, 1 
*Equation 
4 
3333,1, 1 
3571,1,-1 
62,1,-1 
512,1, 1 
*Equation 
4 
3335,1, 1 
3572,1,-1 
62,1,-1 
512,1, 1 
*Equation 
4 
3337,1, 1 
3573,1,-1 
62,1,-1 
512,1, 1 
*Equation 
4 
3339,1, 1 
3574,1,-1 
62,1,-1 
512,1, 1 
*Equation 
4 
3341,1, 1 
3575,1,-1 
62,1,-1 
512,1, 1 
*Equation 
4 
3343,1, 1 
3576,1,-1 
62,1,-1 
512,1, 1 
*Equation 
4 
3345,1, 1 
3577,1,-1 
62,1,-1 
512,1, 1 
*Equation 
4 
3347,1, 1 
3578,1,-1 
62,1,-1 
512,1, 1 
*Equation 
4 
3349,1, 1 
3579,1,-1 
62,1,-1 
512,1, 1 
*Equation 
4 
3351,1, 1 
3580,1,-1 
62,1,-1 
512,1, 1 
*Equation 
4 
3353,1, 1 
3581,1,-1 
62,1,-1 
512,1, 1 
*Equation 
4 
3355,1, 1 
3582,1,-1 
62,1,-1 
512,1, 1 
*Equation 
4 
3357,1, 1 
3583,1,-1 
62,1,-1 
512,1, 1 
*Equation 
4 
3585,1, 1 
3825,1,-1 
62,1,-1 
512,1, 1 
*Equation 
4 
3589,1, 1 
3827,1,-1 
62,1,-1 
512,1, 1 
*Equation 
4 
3591,1, 1 
3828,1,-1 
62,1,-1 
512,1, 1 
*Equation 
4 
3593,1, 1 
3829,1,-1 
62,1,-1 
512,1, 1 
*Equation 
4 
3595,1, 1 
3830,1,-1 
62,1,-1 
512,1, 1 
*Equation 
4 
3597,1, 1 
3831,1,-1 
62,1,-1 
512,1, 1 
*Equation 
4 
3599,1, 1 
3832,1,-1 
62,1,-1 
512,1, 1 
*Equation 
4 
3601,1, 1 
3833,1,-1 
62,1,-1 
512,1, 1 
*Equation 
4 
3603,1, 1 
3834,1,-1 
62,1,-1 
512,1, 1 
*Equation 
4 
3605,1, 1 
3835,1,-1 
62,1,-1 
512,1, 1 
*Equation 
4 
3607,1, 1 
3836,1,-1 
62,1,-1 
512,1, 1 
*Equation 
4 
3609,1, 1 
3837,1,-1 
62,1,-1 
512,1, 1 
*Equation 
4 
3611,1, 1 
3838,1,-1 
62,1,-1 
512,1, 1 
*Equation 
4 
3613,1, 1 
3839,1,-1 
62,1,-1 
512,1, 1 
**** 
**** Y-DIR 
*Equation 
4 
1,2, 1 
481,2,-1 
62,2,-1 
512,2, 1 
*Equation 
4 
9,2, 1 
485,2,-1 
62,2,-1 
512,2, 1 
*Equation 
4 
13,2, 1 
487,2,-1 
62,2,-1 
512,2, 1 
*Equation 
4 
17,2, 1 
489,2,-1 
62,2,-1 
512,2, 1 
*Equation 
4 
21,2, 1 
491,2,-1 
62,2,-1 
512,2, 1 
*Equation 
4 
25,2, 1 
493,2,-1 
62,2,-1 
512,2, 1 
*Equation 
4 
29,2, 1 
495,2,-1 
62,2,-1 
512,2, 1 
*Equation 
4 
33,2, 1 
497,2,-1 
62,2,-1 
512,2, 1 
*Equation 
4 
37,2, 1 
499,2,-1 
62,2,-1 
512,2, 1 
*Equation 
4 
41,2, 1 
501,2,-1 
62,2,-1 
512,2, 1 
*Equation 
4 
45,2, 1 
503,2,-1 
62,2,-1 
512,2, 1 
*Equation 
4 
49,2, 1 
505,2,-1 
62,2,-1 
512,2, 1 
*Equation 
4 
53,2, 1 
507,2,-1 
62,2,-1 
512,2, 1 
*Equation 
4 
57,2, 1 
509,2,-1 
62,2,-1 
512,2, 1 
*Equation 
4 
513,2, 1 
753,2,-1 
62,2,-1 
512,2, 1 
*Equation 
4 
517,2, 1 
755,2,-1 
62,2,-1 
512,2, 1 
*Equation 
4 
519,2, 1 
756,2,-1 
62,2,-1 
512,2, 1 
*Equation 
4 
521,2, 1 
757,2,-1 
62,2,-1 
512,2, 1 
*Equation 
4 
523,2, 1 
758,2,-1 
62,2,-1 
512,2, 1 
*Equation 
4 
525,2, 1 
759,2,-1 
62,2,-1 
512,2, 1 
*Equation 
4 
527,2, 1 
760,2,-1 
62,2,-1 
512,2, 1 
*Equation 
4 
529,2, 1 
761,2,-1 
62,2,-1 
512,2, 1 
*Equation 
4 
531,2, 1 
762,2,-1 
62,2,-1 
512,2, 1 
*Equation 
4 
533,2, 1 
763,2,-1 
62,2,-1 
512,2, 1 
*Equation 
4 
535,2, 1 
764,2,-1 
62,2,-1 
512,2, 1 
*Equation 
4 
537,2, 1 
765,2,-1 
62,2,-1 
512,2, 1 
*Equation 
4 
539,2, 1 
766,2,-1 
62,2,-1 
512,2, 1 
*Equation 
4 
541,2, 1 
767,2,-1 
62,2,-1 
512,2, 1 
*Equation 
4 
769,2, 1 
1009,2,-1 
62,2,-1 
512,2, 1 
*Equation 
4 
773,2, 1 
1011,2,-1 
62,2,-1 
512,2, 1 
*Equation 
4 
775,2, 1 
1012,2,-1 
62,2,-1 
512,2, 1 
*Equation 
4 
777,2, 1 
1013,2,-1 
62,2,-1 
512,2, 1 
*Equation 
4 
779,2, 1 
1014,2,-1 
62,2,-1 
512,2, 1 
*Equation 
4 
781,2, 1 
1015,2,-1 
62,2,-1 
512,2, 1 
*Equation 
4 
783,2, 1 
1016,2,-1 
62,2,-1 
512,2, 1 
*Equation 
4 
785,2, 1 
1017,2,-1 
62,2,-1 
512,2, 1 
*Equation 
4 
787,2, 1 
1018,2,-1 
62,2,-1 
512,2, 1 
*Equation 
4 
789,2, 1 
1019,2,-1 
62,2,-1 
512,2, 1 
*Equation 
4 
791,2, 1 
1020,2,-1 
62,2,-1 
512,2, 1 
*Equation 
4 
793,2, 1 
1021,2,-1 
62,2,-1 
512,2, 1 
*Equation 
4 
795,2, 1 
1022,2,-1 
62,2,-1 
512,2, 1 
*Equation 
4 
797,2, 1 
1023,2,-1 
62,2,-1 
512,2, 1 
*Equation 
4 
1025,2, 1 
1265,2,-1 
62,2,-1 
512,2, 1 
*Equation 
4 
1029,2, 1 
1267,2,-1 
62,2,-1 
512,2, 1 
*Equation 
4 
1031,2, 1 
1268,2,-1 
62,2,-1 
512,2, 1 
*Equation 
4 
1033,2, 1 
1269,2,-1 
62,2,-1 
512,2, 1 
*Equation 
4 
1035,2, 1 
1270,2,-1 
62,2,-1 
512,2, 1 
*Equation 
4 
1037,2, 1 
1271,2,-1 
62,2,-1 
512,2, 1 
*Equation 
4 
1039,2, 1 
1272,2,-1 
62,2,-1 
512,2, 1 
*Equation 
4 
1041,2, 1 
1273,2,-1 
62,2,-1 
512,2, 1 
*Equation 
4 
1043,2, 1 
1274,2,-1 
62,2,-1 
512,2, 1 
*Equation 
4 
1045,2, 1 
1275,2,-1 
62,2,-1 
512,2, 1 
*Equation 
4 
1047,2, 1 
1276,2,-1 
62,2,-1 
512,2, 1 
*Equation 
4 
1049,2, 1 
1277,2,-1 
62,2,-1 
512,2, 1 
*Equation 
4 
1051,2, 1 
1278,2,-1 
62,2,-1 
512,2, 1 
*Equation 
4 
1053,2, 1 
1279,2,-1 
62,2,-1 
512,2, 1 
*Equation 
4 
1281,2, 1 
1521,2,-1 
62,2,-1 
512,2, 1 
*Equation 
4 
1285,2, 1 
1523,2,-1 
62,2,-1 
512,2, 1 
*Equation 
4 
1287,2, 1 
1524,2,-1 
62,2,-1 
512,2, 1 
*Equation 
4 
1289,2, 1 
1525,2,-1 
62,2,-1 
512,2, 1 
*Equation 
4 
1291,2, 1 
1526,2,-1 
62,2,-1 
512,2, 1 
*Equation 
4 
1293,2, 1 
1527,2,-1 
62,2,-1 
512,2, 1 
*Equation 
4 
1295,2, 1 
1528,2,-1 
62,2,-1 
512,2, 1 
*Equation 
4 
1297,2, 1 
1529,2,-1 
62,2,-1 
512,2, 1 
*Equation 
4 
1299,2, 1 
1530,2,-1 
62,2,-1 
512,2, 1 
*Equation 
4 
1301,2, 1 
1531,2,-1 
62,2,-1 
512,2, 1 
*Equation 
4 
1303,2, 1 
1532,2,-1 
62,2,-1 
512,2, 1 
*Equation 
4 
1305,2, 1 
1533,2,-1 
62,2,-1 
512,2, 1 
*Equation 
4 
1307,2, 1 
1534,2,-1 
62,2,-1 
512,2, 1 
*Equation 
4 
1309,2, 1 
1535,2,-1 
62,2,-1 
512,2, 1 
*Equation 
4 
1537,2, 1 
1777,2,-1 
62,2,-1 
512,2, 1 
*Equation 
4 
1541,2, 1 
1779,2,-1 
62,2,-1 
512,2, 1 
*Equation 
4 
1543,2, 1 
1780,2,-1 
62,2,-1 
512,2, 1 
*Equation 
4 
1545,2, 1 
1781,2,-1 
62,2,-1 
512,2, 1 
*Equation 
4 
1547,2, 1 
1782,2,-1 
62,2,-1 
512,2, 1 
*Equation 
4 
1549,2, 1 
1783,2,-1 
62,2,-1 
512,2, 1 
*Equation 
4 
1551,2, 1 
1784,2,-1 
62,2,-1 
512,2, 1 
*Equation 
4 
1553,2, 1 
1785,2,-1 
62,2,-1 
512,2, 1 
*Equation 
4 
1555,2, 1 
1786,2,-1 
62,2,-1 
512,2, 1 
*Equation 
4 
1557,2, 1 
1787,2,-1 
62,2,-1 
512,2, 1 
*Equation 
4 
1559,2, 1 
1788,2,-1 
62,2,-1 
512,2, 1 
*Equation 
4 
1561,2, 1 
1789,2,-1 
62,2,-1 
512,2, 1 
*Equation 
4 
1563,2, 1 
1790,2,-1 
62,2,-1 
512,2, 1 
*Equation 
4 
1565,2, 1 
1791,2,-1 
62,2,-1 
512,2, 1 
*Equation 
4 
1793,2, 1 
2033,2,-1 
62,2,-1 
512,2, 1 
*Equation 
4 
1797,2, 1 
2035,2,-1 
62,2,-1 
512,2, 1 
*Equation 
4 
1799,2, 1 
2036,2,-1 
62,2,-1 
512,2, 1 
*Equation 
4 
1801,2, 1 
2037,2,-1 
62,2,-1 
512,2, 1 
*Equation 
4 
1803,2, 1 
2038,2,-1 
62,2,-1 
512,2, 1 
*Equation 
4 
1805,2, 1 
2039,2,-1 
62,2,-1 
512,2, 1 
*Equation 
4 
1807,2, 1 
2040,2,-1 
62,2,-1 
512,2, 1 
*Equation 
4 
1809,2, 1 
2041,2,-1 
62,2,-1 
512,2, 1 
*Equation 
4 
1811,2, 1 
2042,2,-1 
62,2,-1 
512,2, 1 
*Equation 
4 
1813,2, 1 
2043,2,-1 
62,2,-1 
512,2, 1 
*Equation 
4 
1815,2, 1 
2044,2,-1 
62,2,-1 
512,2, 1 
*Equation 
4 
1817,2, 1 
2045,2,-1 
62,2,-1 
512,2, 1 
*Equation 
4 
1819,2, 1 
2046,2,-1 
62,2,-1 
512,2, 1 
*Equation 
4 
1821,2, 1 
2047,2,-1 
62,2,-1 
512,2, 1 
*Equation 
4 
2049,2, 1 
2289,2,-1 
62,2,-1 
512,2, 1 
*Equation 
4 
2053,2, 1 
2291,2,-1 
62,2,-1 
512,2, 1 
*Equation 
4 
2055,2, 1 
2292,2,-1 
62,2,-1 
512,2, 1 
*Equation 
4 
2057,2, 1 
2293,2,-1 
62,2,-1 
512,2, 1 
*Equation 
4 
2059,2, 1 
2294,2,-1 
62,2,-1 
512,2, 1 
*Equation 
4 
2061,2, 1 
2295,2,-1 
62,2,-1 
512,2, 1 
*Equation 
4 
2063,2, 1 
2296,2,-1 
62,2,-1 
512,2, 1 
*Equation 
4 
2065,2, 1 
2297,2,-1 
62,2,-1 
512,2, 1 
*Equation 
4 
2067,2, 1 
2298,2,-1 
62,2,-1 
512,2, 1 
*Equation 
4 
2069,2, 1 
2299,2,-1 
62,2,-1 
512,2, 1 
*Equation 
4 
2071,2, 1 
2300,2,-1 
62,2,-1 
512,2, 1 
*Equation 
4 
2073,2, 1 
2301,2,-1 
62,2,-1 
512,2, 1 
*Equation 
4 
2075,2, 1 
2302,2,-1 
62,2,-1 
512,2, 1 
*Equation 
4 
2077,2, 1 
2303,2,-1 
62,2,-1 
512,2, 1 
*Equation 
4 
2305,2, 1 
2545,2,-1 
62,2,-1 
512,2, 1 
*Equation 
4 
2309,2, 1 
2547,2,-1 
62,2,-1 
512,2, 1 
*Equation 
4 
2311,2, 1 
2548,2,-1 
62,2,-1 
512,2, 1 
*Equation 
4 
2313,2, 1 
2549,2,-1 
62,2,-1 
512,2, 1 
*Equation 
4 
2315,2, 1 
2550,2,-1 
62,2,-1 
512,2, 1 
*Equation 
4 
2317,2, 1 
2551,2,-1 
62,2,-1 
512,2, 1 
*Equation 
4 
2319,2, 1 
2552,2,-1 
62,2,-1 
512,2, 1 
*Equation 
4 
2321,2, 1 
2553,2,-1 
62,2,-1 
512,2, 1 
*Equation 
4 
2323,2, 1 
2554,2,-1 
62,2,-1 
512,2, 1 
*Equation 
4 
2325,2, 1 
2555,2,-1 
62,2,-1 
512,2, 1 
*Equation 
4 
2327,2, 1 
2556,2,-1 
62,2,-1 
512,2, 1 
*Equation 
4 
2329,2, 1 
2557,2,-1 
62,2,-1 
512,2, 1 
*Equation 
4 
2331,2, 1 
2558,2,-1 
62,2,-1 
512,2, 1 
*Equation 
4 
2333,2, 1 
2559,2,-1 
62,2,-1 
512,2, 1 
*Equation 
4 
2561,2, 1 
2801,2,-1 
62,2,-1 
512,2, 1 
*Equation 
4 
2565,2, 1 
2803,2,-1 
62,2,-1 
512,2, 1 
*Equation 
4 
2567,2, 1 
2804,2,-1 
62,2,-1 
512,2, 1 
*Equation 
4 
2569,2, 1 
2805,2,-1 
62,2,-1 
512,2, 1 
*Equation 
4 
2571,2, 1 
2806,2,-1 
62,2,-1 
512,2, 1 
*Equation 
4 
2573,2, 1 
2807,2,-1 
62,2,-1 
512,2, 1 
*Equation 
4 
2575,2, 1 
2808,2,-1 
62,2,-1 
512,2, 1 
*Equation 
4 
2577,2, 1 
2809,2,-1 
62,2,-1 
512,2, 1 
*Equation 
4 
2579,2, 1 
2810,2,-1 
62,2,-1 
512,2, 1 
*Equation 
4 
2581,2, 1 
2811,2,-1 
62,2,-1 
512,2, 1 
*Equation 
4 
2583,2, 1 
2812,2,-1 
62,2,-1 
512,2, 1 
*Equation 
4 
2585,2, 1 
2813,2,-1 
62,2,-1 
512,2, 1 
*Equation 
4 
2587,2, 1 
2814,2,-1 
62,2,-1 
512,2, 1 
*Equation 
4 
2589,2, 1 
2815,2,-1 
62,2,-1 
512,2, 1 
*Equation 
4 
2817,2, 1 
3057,2,-1 
62,2,-1 
512,2, 1 
*Equation 
4 
2821,2, 1 
3059,2,-1 
62,2,-1 
512,2, 1 
*Equation 
4 
2823,2, 1 
3060,2,-1 
62,2,-1 
512,2, 1 
*Equation 
4 
2825,2, 1 
3061,2,-1 
62,2,-1 
512,2, 1 
*Equation 
4 
2827,2, 1 
3062,2,-1 
62,2,-1 
512,2, 1 
*Equation 
4 
2829,2, 1 
3063,2,-1 
62,2,-1 
512,2, 1 
*Equation 
4 
2831,2, 1 
3064,2,-1 
62,2,-1 
512,2, 1 
*Equation 
4 
2833,2, 1 
3065,2,-1 
62,2,-1 
512,2, 1 
*Equation 
4 
2835,2, 1 
3066,2,-1 
62,2,-1 
512,2, 1 
*Equation 
4 
2837,2, 1 
3067,2,-1 
62,2,-1 
512,2, 1 
*Equation 
4 
2839,2, 1 
3068,2,-1 
62,2,-1 
512,2, 1 
*Equation 
4 
2841,2, 1 
3069,2,-1 
62,2,-1 
512,2, 1 
*Equation 
4 
2843,2, 1 
3070,2,-1 
62,2,-1 
512,2, 1 
*Equation 
4 
2845,2, 1 
3071,2,-1 
62,2,-1 
512,2, 1 
*Equation 
4 
3073,2, 1 
3313,2,-1 
62,2,-1 
512,2, 1 
*Equation 
4 
3077,2, 1 
3315,2,-1 
62,2,-1 
512,2, 1 
*Equation 
4 
3079,2, 1 
3316,2,-1 
62,2,-1 
512,2, 1 
*Equation 
4 
3081,2, 1 
3317,2,-1 
62,2,-1 
512,2, 1 
*Equation 
4 
3083,2, 1 
3318,2,-1 
62,2,-1 
512,2, 1 
*Equation 
4 
3085,2, 1 
3319,2,-1 
62,2,-1 
512,2, 1 
*Equation 
4 
3087,2, 1 
3320,2,-1 
62,2,-1 
512,2, 1 
*Equation 
4 
3089,2, 1 
3321,2,-1 
62,2,-1 
512,2, 1 
*Equation 
4 
3091,2, 1 
3322,2,-1 
62,2,-1 
512,2, 1 
*Equation 
4 
3093,2, 1 
3323,2,-1 
62,2,-1 
512,2, 1 
*Equation 
4 
3095,2, 1 
3324,2,-1 
62,2,-1 
512,2, 1 
*Equation 
4 
3097,2, 1 
3325,2,-1 
62,2,-1 
512,2, 1 
*Equation 
4 
3099,2, 1 
3326,2,-1 
62,2,-1 
512,2, 1 
*Equation 
4 
3101,2, 1 
3327,2,-1 
62,2,-1 
512,2, 1 
*Equation 
4 
3329,2, 1 
3569,2,-1 
62,2,-1 
512,2, 1 
*Equation 
4 
3333,2, 1 
3571,2,-1 
62,2,-1 
512,2, 1 
*Equation 
4 
3335,2, 1 
3572,2,-1 
62,2,-1 
512,2, 1 
*Equation 
4 
3337,2, 1 
3573,2,-1 
62,2,-1 
512,2, 1 
*Equation 
4 
3339,2, 1 
3574,2,-1 
62,2,-1 
512,2, 1 
*Equation 
4 
3341,2, 1 
3575,2,-1 
62,2,-1 
512,2, 1 
*Equation 
4 
3343,2, 1 
3576,2,-1 
62,2,-1 
512,2, 1 
*Equation 
4 
3345,2, 1 
3577,2,-1 
62,2,-1 
512,2, 1 
*Equation 
4 
3347,2, 1 
3578,2,-1 
62,2,-1 
512,2, 1 
*Equation 
4 
3349,2, 1 
3579,2,-1 
62,2,-1 
512,2, 1 
*Equation 
4 
3351,2, 1 
3580,2,-1 
62,2,-1 
512,2, 1 
*Equation 
4 
3353,2, 1 
3581,2,-1 
62,2,-1 
512,2, 1 
*Equation 
4 
3355,2, 1 
3582,2,-1 
62,2,-1 
512,2, 1 
*Equation 
4 
3357,2, 1 
3583,2,-1 
62,2,-1 
512,2, 1 
*Equation 
4 
3585,2, 1 
3825,2,-1 
62,2,-1 
512,2, 1 
*Equation 
4 
3589,2, 1 
3827,2,-1 
62,2,-1 
512,2, 1 
*Equation 
4 
3591,2, 1 
3828,2,-1 
62,2,-1 
512,2, 1 
*Equation 
4 
3593,2, 1 
3829,2,-1 
62,2,-1 
512,2, 1 
*Equation 
4 
3595,2, 1 
3830,2,-1 
62,2,-1 
512,2, 1 
*Equation 
4 
3597,2, 1 
3831,2,-1 
62,2,-1 
512,2, 1 
*Equation 
4 
3599,2, 1 
3832,2,-1 
62,2,-1 
512,2, 1 
*Equation 
4 
3601,2, 1 
3833,2,-1 
62,2,-1 
512,2, 1 
*Equation 
4 
3603,2, 1 
3834,2,-1 
62,2,-1 
512,2, 1 
*Equation 
4 
3605,2, 1 
3835,2,-1 
62,2,-1 
512,2, 1 
*Equation 
4 
3607,2, 1 
3836,2,-1 
62,2,-1 
512,2, 1 
*Equation 
4 
3609,2, 1 
3837,2,-1 
62,2,-1 
512,2, 1 
*Equation 
4 
3611,2, 1 
3838,2,-1 
62,2,-1 
512,2, 1 
*Equation 
4 
3613,2, 1 
3839,2,-1 
62,2,-1 
512,2, 1 
**** 
**** Z-DIR 
*Equation 
4 
1,3, 1 
481,3,-1 
62,3,-1 
512,3, 1 
*Equation 
4 
9,3, 1 
485,3,-1 
62,3,-1 
512,3, 1 
*Equation 
4 
13,3, 1 
487,3,-1 
62,3,-1 
512,3, 1 
*Equation 
4 
17,3, 1 
489,3,-1 
62,3,-1 
512,3, 1 
*Equation 
4 
21,3, 1 
491,3,-1 
62,3,-1 
512,3, 1 
*Equation 
4 
25,3, 1 
493,3,-1 
62,3,-1 
512,3, 1 
*Equation 
4 
29,3, 1 
495,3,-1 
62,3,-1 
512,3, 1 
*Equation 
4 
33,3, 1 
497,3,-1 
62,3,-1 
512,3, 1 
*Equation 
4 
37,3, 1 
499,3,-1 
62,3,-1 
512,3, 1 
*Equation 
4 
41,3, 1 
501,3,-1 
62,3,-1 
512,3, 1 
*Equation 
4 
45,3, 1 
503,3,-1 
62,3,-1 
512,3, 1 
*Equation 
4 
49,3, 1 
505,3,-1 
62,3,-1 
512,3, 1 
*Equation 
4 
53,3, 1 
507,3,-1 
62,3,-1 
512,3, 1 
*Equation 
4 
57,3, 1 
509,3,-1 
62,3,-1 
512,3, 1 
*Equation 
4 
513,3, 1 
753,3,-1 
62,3,-1 
512,3, 1 
*Equation 
4 
517,3, 1 
755,3,-1 
62,3,-1 
512,3, 1 
*Equation 
4 
519,3, 1 
756,3,-1 
62,3,-1 
512,3, 1 
*Equation 
4 
521,3, 1 
757,3,-1 
62,3,-1 
512,3, 1 
*Equation 
4 
523,3, 1 
758,3,-1 
62,3,-1 
512,3, 1 
*Equation 
4 
525,3, 1 
759,3,-1 
62,3,-1 
512,3, 1 
*Equation 
4 
527,3, 1 
760,3,-1 
62,3,-1 
512,3, 1 
*Equation 
4 
529,3, 1 
761,3,-1 
62,3,-1 
512,3, 1 
*Equation 
4 
531,3, 1 
762,3,-1 
62,3,-1 
512,3, 1 
*Equation 
4 
533,3, 1 
763,3,-1 
62,3,-1 
512,3, 1 
*Equation 
4 
535,3, 1 
764,3,-1 
62,3,-1 
512,3, 1 
*Equation 
4 
537,3, 1 
765,3,-1 
62,3,-1 
512,3, 1 
*Equation 
4 
539,3, 1 
766,3,-1 
62,3,-1 
512,3, 1 
*Equation 
4 
541,3, 1 
767,3,-1 
62,3,-1 
512,3, 1 
*Equation 
4 
769,3, 1 
1009,3,-1 
62,3,-1 
512,3, 1 
*Equation 
4 
773,3, 1 
1011,3,-1 
62,3,-1 
512,3, 1 
*Equation 
4 
775,3, 1 
1012,3,-1 
62,3,-1 
512,3, 1 
*Equation 
4 
777,3, 1 
1013,3,-1 
62,3,-1 
512,3, 1 
*Equation 
4 
779,3, 1 
1014,3,-1 
62,3,-1 
512,3, 1 
*Equation 
4 
781,3, 1 
1015,3,-1 
62,3,-1 
512,3, 1 
*Equation 
4 
783,3, 1 
1016,3,-1 
62,3,-1 
512,3, 1 
*Equation 
4 
785,3, 1 
1017,3,-1 
62,3,-1 
512,3, 1 
*Equation 
4 
787,3, 1 
1018,3,-1 
62,3,-1 
512,3, 1 
*Equation 
4 
789,3, 1 
1019,3,-1 
62,3,-1 
512,3, 1 
*Equation 
4 
791,3, 1 
1020,3,-1 
62,3,-1 
512,3, 1 
*Equation 
4 
793,3, 1 
1021,3,-1 
62,3,-1 
512,3, 1 
*Equation 
4 
795,3, 1 
1022,3,-1 
62,3,-1 
512,3, 1 
*Equation 
4 
797,3, 1 
1023,3,-1 
62,3,-1 
512,3, 1 
*Equation 
4 
1025,3, 1 
1265,3,-1 
62,3,-1 
512,3, 1 
*Equation 
4 
1029,3, 1 
1267,3,-1 
62,3,-1 
512,3, 1 
*Equation 
4 
1031,3, 1 
1268,3,-1 
62,3,-1 
512,3, 1 
*Equation 
4 
1033,3, 1 
1269,3,-1 
62,3,-1 
512,3, 1 
*Equation 
4 
1035,3, 1 
1270,3,-1 
62,3,-1 
512,3, 1 
*Equation 
4 
1037,3, 1 
1271,3,-1 
62,3,-1 
512,3, 1 
*Equation 
4 
1039,3, 1 
1272,3,-1 
62,3,-1 
512,3, 1 
*Equation 
4 
1041,3, 1 
1273,3,-1 
62,3,-1 
512,3, 1 
*Equation 
4 
1043,3, 1 
1274,3,-1 
62,3,-1 
512,3, 1 
*Equation 
4 
1045,3, 1 
1275,3,-1 
62,3,-1 
512,3, 1 
*Equation 
4 
1047,3, 1 
1276,3,-1 
62,3,-1 
512,3, 1 
*Equation 
4 
1049,3, 1 
1277,3,-1 
62,3,-1 
512,3, 1 
*Equation 
4 
1051,3, 1 
1278,3,-1 
62,3,-1 
512,3, 1 
*Equation 
4 
1053,3, 1 
1279,3,-1 
62,3,-1 
512,3, 1 
*Equation 
4 
1281,3, 1 
1521,3,-1 
62,3,-1 
512,3, 1 
*Equation 
4 
1285,3, 1 
1523,3,-1 
62,3,-1 
512,3, 1 
*Equation 
4 
1287,3, 1 
1524,3,-1 
62,3,-1 
512,3, 1 
*Equation 
4 
1289,3, 1 
1525,3,-1 
62,3,-1 
512,3, 1 
*Equation 
4 
1291,3, 1 
1526,3,-1 
62,3,-1 
512,3, 1 
*Equation 
4 
1293,3, 1 
1527,3,-1 
62,3,-1 
512,3, 1 
*Equation 
4 
1295,3, 1 
1528,3,-1 
62,3,-1 
512,3, 1 
*Equation 
4 
1297,3, 1 
1529,3,-1 
62,3,-1 
512,3, 1 
*Equation 
4 
1299,3, 1 
1530,3,-1 
62,3,-1 
512,3, 1 
*Equation 
4 
1301,3, 1 
1531,3,-1 
62,3,-1 
512,3, 1 
*Equation 
4 
1303,3, 1 
1532,3,-1 
62,3,-1 
512,3, 1 
*Equation 
4 
1305,3, 1 
1533,3,-1 
62,3,-1 
512,3, 1 
*Equation 
4 
1307,3, 1 
1534,3,-1 
62,3,-1 
512,3, 1 
*Equation 
4 
1309,3, 1 
1535,3,-1 
62,3,-1 
512,3, 1 
*Equation 
4 
1537,3, 1 
1777,3,-1 
62,3,-1 
512,3, 1 
*Equation 
4 
1541,3, 1 
1779,3,-1 
62,3,-1 
512,3, 1 
*Equation 
4 
1543,3, 1 
1780,3,-1 
62,3,-1 
512,3, 1 
*Equation 
4 
1545,3, 1 
1781,3,-1 
62,3,-1 
512,3, 1 
*Equation 
4 
1547,3, 1 
1782,3,-1 
62,3,-1 
512,3, 1 
*Equation 
4 
1549,3, 1 
1783,3,-1 
62,3,-1 
512,3, 1 
*Equation 
4 
1551,3, 1 
1784,3,-1 
62,3,-1 
512,3, 1 
*Equation 
4 
1553,3, 1 
1785,3,-1 
62,3,-1 
512,3, 1 
*Equation 
4 
1555,3, 1 
1786,3,-1 
62,3,-1 
512,3, 1 
*Equation 
4 
1557,3, 1 
1787,3,-1 
62,3,-1 
512,3, 1 
*Equation 
4 
1559,3, 1 
1788,3,-1 
62,3,-1 
512,3, 1 
*Equation 
4 
1561,3, 1 
1789,3,-1 
62,3,-1 
512,3, 1 
*Equation 
4 
1563,3, 1 
1790,3,-1 
62,3,-1 
512,3, 1 
*Equation 
4 
1565,3, 1 
1791,3,-1 
62,3,-1 
512,3, 1 
*Equation 
4 
1793,3, 1 
2033,3,-1 
62,3,-1 
512,3, 1 
*Equation 
4 
1797,3, 1 
2035,3,-1 
62,3,-1 
512,3, 1 
*Equation 
4 
1799,3, 1 
2036,3,-1 
62,3,-1 
512,3, 1 
*Equation 
4 
1801,3, 1 
2037,3,-1 
62,3,-1 
512,3, 1 
*Equation 
4 
1803,3, 1 
2038,3,-1 
62,3,-1 
512,3, 1 
*Equation 
4 
1805,3, 1 
2039,3,-1 
62,3,-1 
512,3, 1 
*Equation 
4 
1807,3, 1 
2040,3,-1 
62,3,-1 
512,3, 1 
*Equation 
4 
1809,3, 1 
2041,3,-1 
62,3,-1 
512,3, 1 
*Equation 
4 
1811,3, 1 
2042,3,-1 
62,3,-1 
512,3, 1 
*Equation 
4 
1813,3, 1 
2043,3,-1 
62,3,-1 
512,3, 1 
*Equation 
4 
1815,3, 1 
2044,3,-1 
62,3,-1 
512,3, 1 
*Equation 
4 
1817,3, 1 
2045,3,-1 
62,3,-1 
512,3, 1 
*Equation 
4 
1819,3, 1 
2046,3,-1 
62,3,-1 
512,3, 1 
*Equation 
4 
1821,3, 1 
2047,3,-1 
62,3,-1 
512,3, 1 
*Equation 
4 
2049,3, 1 
2289,3,-1 
62,3,-1 
512,3, 1 
*Equation 
4 
2053,3, 1 
2291,3,-1 
62,3,-1 
512,3, 1 
*Equation 
4 
2055,3, 1 
2292,3,-1 
62,3,-1 
512,3, 1 
*Equation 
4 
2057,3, 1 
2293,3,-1 
62,3,-1 
512,3, 1 
*Equation 
4 
2059,3, 1 
2294,3,-1 
62,3,-1 
512,3, 1 
*Equation 
4 
2061,3, 1 
2295,3,-1 
62,3,-1 
512,3, 1 
*Equation 
4 
2063,3, 1 
2296,3,-1 
62,3,-1 
512,3, 1 
*Equation 
4 
2065,3, 1 
2297,3,-1 
62,3,-1 
512,3, 1 
*Equation 
4 
2067,3, 1 
2298,3,-1 
62,3,-1 
512,3, 1 
*Equation 
4 
2069,3, 1 
2299,3,-1 
62,3,-1 
512,3, 1 
*Equation 
4 
2071,3, 1 
2300,3,-1 
62,3,-1 
512,3, 1 
*Equation 
4 
2073,3, 1 
2301,3,-1 
62,3,-1 
512,3, 1 
*Equation 
4 
2075,3, 1 
2302,3,-1 
62,3,-1 
512,3, 1 
*Equation 
4 
2077,3, 1 
2303,3,-1 
62,3,-1 
512,3, 1 
*Equation 
4 
2305,3, 1 
2545,3,-1 
62,3,-1 
512,3, 1 
*Equation 
4 
2309,3, 1 
2547,3,-1 
62,3,-1 
512,3, 1 
*Equation 
4 
2311,3, 1 
2548,3,-1 
62,3,-1 
512,3, 1 
*Equation 
4 
2313,3, 1 
2549,3,-1 
62,3,-1 
512,3, 1 
*Equation 
4 
2315,3, 1 
2550,3,-1 
62,3,-1 
512,3, 1 
*Equation 
4 
2317,3, 1 
2551,3,-1 
62,3,-1 
512,3, 1 
*Equation 
4 
2319,3, 1 
2552,3,-1 
62,3,-1 
512,3, 1 
*Equation 
4 
2321,3, 1 
2553,3,-1 
62,3,-1 
512,3, 1 
*Equation 
4 
2323,3, 1 
2554,3,-1 
62,3,-1 
512,3, 1 
*Equation 
4 
2325,3, 1 
2555,3,-1 
62,3,-1 
512,3, 1 
*Equation 
4 
2327,3, 1 
2556,3,-1 
62,3,-1 
512,3, 1 
*Equation 
4 
2329,3, 1 
2557,3,-1 
62,3,-1 
512,3, 1 
*Equation 
4 
2331,3, 1 
2558,3,-1 
62,3,-1 
512,3, 1 
*Equation 
4 
2333,3, 1 
2559,3,-1 
62,3,-1 
512,3, 1 
*Equation 
4 
2561,3, 1 
2801,3,-1 
62,3,-1 
512,3, 1 
*Equation 
4 
2565,3, 1 
2803,3,-1 
62,3,-1 
512,3, 1 
*Equation 
4 
2567,3, 1 
2804,3,-1 
62,3,-1 
512,3, 1 
*Equation 
4 
2569,3, 1 
2805,3,-1 
62,3,-1 
512,3, 1 
*Equation 
4 
2571,3, 1 
2806,3,-1 
62,3,-1 
512,3, 1 
*Equation 
4 
2573,3, 1 
2807,3,-1 
62,3,-1 
512,3, 1 
*Equation 
4 
2575,3, 1 
2808,3,-1 
62,3,-1 
512,3, 1 
*Equation 
4 
2577,3, 1 
2809,3,-1 
62,3,-1 
512,3, 1 
*Equation 
4 
2579,3, 1 
2810,3,-1 
62,3,-1 
512,3, 1 
*Equation 
4 
2581,3, 1 
2811,3,-1 
62,3,-1 
512,3, 1 
*Equation 
4 
2583,3, 1 
2812,3,-1 
62,3,-1 
512,3, 1 
*Equation 
4 
2585,3, 1 
2813,3,-1 
62,3,-1 
512,3, 1 
*Equation 
4 
2587,3, 1 
2814,3,-1 
62,3,-1 
512,3, 1 
*Equation 
4 
2589,3, 1 
2815,3,-1 
62,3,-1 
512,3, 1 
*Equation 
4 
2817,3, 1 
3057,3,-1 
62,3,-1 
512,3, 1 
*Equation 
4 
2821,3, 1 
3059,3,-1 
62,3,-1 
512,3, 1 
*Equation 
4 
2823,3, 1 
3060,3,-1 
62,3,-1 
512,3, 1 
*Equation 
4 
2825,3, 1 
3061,3,-1 
62,3,-1 
512,3, 1 
*Equation 
4 
2827,3, 1 
3062,3,-1 
62,3,-1 
512,3, 1 
*Equation 
4 
2829,3, 1 
3063,3,-1 
62,3,-1 
512,3, 1 
*Equation 
4 
2831,3, 1 
3064,3,-1 
62,3,-1 
512,3, 1 
*Equation 
4 
2833,3, 1 
3065,3,-1 
62,3,-1 
512,3, 1 
*Equation 
4 
2835,3, 1 
3066,3,-1 
62,3,-1 
512,3, 1 
*Equation 
4 
2837,3, 1 
3067,3,-1 
62,3,-1 
512,3, 1 
*Equation 
4 
2839,3, 1 
3068,3,-1 
62,3,-1 
512,3, 1 
*Equation 
4 
2841,3, 1 
3069,3,-1 
62,3,-1 
512,3, 1 
*Equation 
4 
2843,3, 1 
3070,3,-1 
62,3,-1 
512,3, 1 
*Equation 
4 
2845,3, 1 
3071,3,-1 
62,3,-1 
512,3, 1 
*Equation 
4 
3073,3, 1 
3313,3,-1 
62,3,-1 
512,3, 1 
*Equation 
4 
3077,3, 1 
3315,3,-1 
62,3,-1 
512,3, 1 
*Equation 
4 
3079,3, 1 
3316,3,-1 
62,3,-1 
512,3, 1 
*Equation 
4 
3081,3, 1 
3317,3,-1 
62,3,-1 
512,3, 1 
*Equation 
4 
3083,3, 1 
3318,3,-1 
62,3,-1 
512,3, 1 
*Equation 
4 
3085,3, 1 
3319,3,-1 
62,3,-1 
512,3, 1 
*Equation 
4 
3087,3, 1 
3320,3,-1 
62,3,-1 
512,3, 1 
*Equation 
4 
3089,3, 1 
3321,3,-1 
62,3,-1 
512,3, 1 
*Equation 
4 
3091,3, 1 
3322,3,-1 
62,3,-1 
512,3, 1 
*Equation 
4 
3093,3, 1 
3323,3,-1 
62,3,-1 
512,3, 1 
*Equation 
4 
3095,3, 1 
3324,3,-1 
62,3,-1 
512,3, 1 
*Equation 
4 
3097,3, 1 
3325,3,-1 
62,3,-1 
512,3, 1 
*Equation 
4 
3099,3, 1 
3326,3,-1 
62,3,-1 
512,3, 1 
*Equation 
4 
3101,3, 1 
3327,3,-1 
62,3,-1 
512,3, 1 
*Equation 
4 
3329,3, 1 
3569,3,-1 
62,3,-1 
512,3, 1 
*Equation 
4 
3333,3, 1 
3571,3,-1 
62,3,-1 
512,3, 1 
*Equation 
4 
3335,3, 1 
3572,3,-1 
62,3,-1 
512,3, 1 
*Equation 
4 
3337,3, 1 
3573,3,-1 
62,3,-1 
512,3, 1 
*Equation 
4 
3339,3, 1 
3574,3,-1 
62,3,-1 
512,3, 1 
*Equation 
4 
3341,3, 1 
3575,3,-1 
62,3,-1 
512,3, 1 
*Equation 
4 
3343,3, 1 
3576,3,-1 
62,3,-1 
512,3, 1 
*Equation 
4 
3345,3, 1 
3577,3,-1 
62,3,-1 
512,3, 1 
*Equation 
4 
3347,3, 1 
3578,3,-1 
62,3,-1 
512,3, 1 
*Equation 
4 
3349,3, 1 
3579,3,-1 
62,3,-1 
512,3, 1 
*Equation 
4 
3351,3, 1 
3580,3,-1 
62,3,-1 
512,3, 1 
*Equation 
4 
3353,3, 1 
3581,3,-1 
62,3,-1 
512,3, 1 
*Equation 
4 
3355,3, 1 
3582,3,-1 
62,3,-1 
512,3, 1 
*Equation 
4 
3357,3, 1 
3583,3,-1 
62,3,-1 
512,3, 1 
*Equation 
4 
3585,3, 1 
3825,3,-1 
62,3,-1 
512,3, 1 
*Equation 
4 
3589,3, 1 
3827,3,-1 
62,3,-1 
512,3, 1 
*Equation 
4 
3591,3, 1 
3828,3,-1 
62,3,-1 
512,3, 1 
*Equation 
4 
3593,3, 1 
3829,3,-1 
62,3,-1 
512,3, 1 
*Equation 
4 
3595,3, 1 
3830,3,-1 
62,3,-1 
512,3, 1 
*Equation 
4 
3597,3, 1 
3831,3,-1 
62,3,-1 
512,3, 1 
*Equation 
4 
3599,3, 1 
3832,3,-1 
62,3,-1 
512,3, 1 
*Equation 
4 
3601,3, 1 
3833,3,-1 
62,3,-1 
512,3, 1 
*Equation 
4 
3603,3, 1 
3834,3,-1 
62,3,-1 
512,3, 1 
*Equation 
4 
3605,3, 1 
3835,3,-1 
62,3,-1 
512,3, 1 
*Equation 
4 
3607,3, 1 
3836,3,-1 
62,3,-1 
512,3, 1 
*Equation 
4 
3609,3, 1 
3837,3,-1 
62,3,-1 
512,3, 1 
*Equation 
4 
3611,3, 1 
3838,3,-1 
62,3,-1 
512,3, 1 
*Equation 
4 
3613,3, 1 
3839,3,-1 
62,3,-1 
512,3, 1 
**** Front to Rear 
**** 
**** X-DIR 
*Equation 
4 
6,1,-1 
63,1, 1 
62,1,-1 
3,1, 1 
*Equation 
4 
66,1,-1 
95,1, 1 
62,1,-1 
3,1, 1 
*Equation 
4 
98,1,-1 
127,1, 1 
62,1,-1 
3,1, 1 
*Equation 
4 
130,1,-1 
159,1, 1 
62,1,-1 
3,1, 1 
*Equation 
4 
162,1,-1 
191,1, 1 
62,1,-1 
3,1, 1 
*Equation 
4 
194,1,-1 
223,1, 1 
62,1,-1 
3,1, 1 
*Equation 
4 
226,1,-1 
255,1, 1 
62,1,-1 
3,1, 1 
*Equation 
4 
258,1,-1 
287,1, 1 
62,1,-1 
3,1, 1 
*Equation 
4 
290,1,-1 
319,1, 1 
62,1,-1 
3,1, 1 
*Equation 
4 
322,1,-1 
351,1, 1 
62,1,-1 
3,1, 1 
*Equation 
4 
354,1,-1 
383,1, 1 
62,1,-1 
3,1, 1 
*Equation 
4 
386,1,-1 
415,1, 1 
62,1,-1 
3,1, 1 
*Equation 
4 
418,1,-1 
447,1, 1 
62,1,-1 
3,1, 1 
*Equation 
4 
450,1,-1 
479,1, 1 
62,1,-1 
3,1, 1 
*Equation 
4 
516,1,-1 
544,1, 1 
62,1,-1 
3,1, 1 
*Equation 
4 
546,1,-1 
560,1, 1 
62,1,-1 
3,1, 1 
*Equation 
4 
562,1,-1 
576,1, 1 
62,1,-1 
3,1, 1 
*Equation 
4 
578,1,-1 
592,1, 1 
62,1,-1 
3,1, 1 
*Equation 
4 
594,1,-1 
608,1, 1 
62,1,-1 
3,1, 1 
*Equation 
4 
610,1,-1 
624,1, 1 
62,1,-1 
3,1, 1 
*Equation 
4 
626,1,-1 
640,1, 1 
62,1,-1 
3,1, 1 
*Equation 
4 
642,1,-1 
656,1, 1 
62,1,-1 
3,1, 1 
*Equation 
4 
658,1,-1 
672,1, 1 
62,1,-1 
3,1, 1 
*Equation 
4 
674,1,-1 
688,1, 1 
62,1,-1 
3,1, 1 
*Equation 
4 
690,1,-1 
704,1, 1 
62,1,-1 
3,1, 1 
*Equation 
4 
706,1,-1 
720,1, 1 
62,1,-1 
3,1, 1 
*Equation 
4 
722,1,-1 
736,1, 1 
62,1,-1 
3,1, 1 
*Equation 
4 
738,1,-1 
752,1, 1 
62,1,-1 
3,1, 1 
*Equation 
4 
772,1,-1 
800,1, 1 
62,1,-1 
3,1, 1 
*Equation 
4 
802,1,-1 
816,1, 1 
62,1,-1 
3,1, 1 
*Equation 
4 
818,1,-1 
832,1, 1 
62,1,-1 
3,1, 1 
*Equation 
4 
834,1,-1 
848,1, 1 
62,1,-1 
3,1, 1 
*Equation 
4 
850,1,-1 
864,1, 1 
62,1,-1 
3,1, 1 
*Equation 
4 
866,1,-1 
880,1, 1 
62,1,-1 
3,1, 1 
*Equation 
4 
882,1,-1 
896,1, 1 
62,1,-1 
3,1, 1 
*Equation 
4 
898,1,-1 
912,1, 1 
62,1,-1 
3,1, 1 
*Equation 
4 
914,1,-1 
928,1, 1 
62,1,-1 
3,1, 1 
*Equation 
4 
930,1,-1 
944,1, 1 
62,1,-1 
3,1, 1 
*Equation 
4 
946,1,-1 
960,1, 1 
62,1,-1 
3,1, 1 
*Equation 
4 
962,1,-1 
976,1, 1 
62,1,-1 
3,1, 1 
*Equation 
4 
978,1,-1 
992,1, 1 
62,1,-1 
3,1, 1 
*Equation 
4 
994,1,-1 
1008,1, 1 
62,1,-1 
3,1, 1 
*Equation 
4 
1028,1,-1 
1056,1, 1 
62,1,-1 
3,1, 1 
*Equation 
4 
1058,1,-1 
1072,1, 1 
62,1,-1 
3,1, 1 
*Equation 
4 
1074,1,-1 
1088,1, 1 
62,1,-1 
3,1, 1 
*Equation 
4 
1090,1,-1 
1104,1, 1 
62,1,-1 
3,1, 1 
*Equation 
4 
1106,1,-1 
1120,1, 1 
62,1,-1 
3,1, 1 
*Equation 
4 
1122,1,-1 
1136,1, 1 
62,1,-1 
3,1, 1 
*Equation 
4 
1138,1,-1 
1152,1, 1 
62,1,-1 
3,1, 1 
*Equation 
4 
1154,1,-1 
1168,1, 1 
62,1,-1 
3,1, 1 
*Equation 
4 
1170,1,-1 
1184,1, 1 
62,1,-1 
3,1, 1 
*Equation 
4 
1186,1,-1 
1200,1, 1 
62,1,-1 
3,1, 1 
*Equation 
4 
1202,1,-1 
1216,1, 1 
62,1,-1 
3,1, 1 
*Equation 
4 
1218,1,-1 
1232,1, 1 
62,1,-1 
3,1, 1 
*Equation 
4 
1234,1,-1 
1248,1, 1 
62,1,-1 
3,1, 1 
*Equation 
4 
1250,1,-1 
1264,1, 1 
62,1,-1 
3,1, 1 
*Equation 
4 
1284,1,-1 
1312,1, 1 
62,1,-1 
3,1, 1 
*Equation 
4 
1314,1,-1 
1328,1, 1 
62,1,-1 
3,1, 1 
*Equation 
4 
1330,1,-1 
1344,1, 1 
62,1,-1 
3,1, 1 
*Equation 
4 
1346,1,-1 
1360,1, 1 
62,1,-1 
3,1, 1 
*Equation 
4 
1362,1,-1 
1376,1, 1 
62,1,-1 
3,1, 1 
*Equation 
4 
1378,1,-1 
1392,1, 1 
62,1,-1 
3,1, 1 
*Equation 
4 
1394,1,-1 
1408,1, 1 
62,1,-1 
3,1, 1 
*Equation 
4 
1410,1,-1 
1424,1, 1 
62,1,-1 
3,1, 1 
*Equation 
4 
1426,1,-1 
1440,1, 1 
62,1,-1 
3,1, 1 
*Equation 
4 
1442,1,-1 
1456,1, 1 
62,1,-1 
3,1, 1 
*Equation 
4 
1458,1,-1 
1472,1, 1 
62,1,-1 
3,1, 1 
*Equation 
4 
1474,1,-1 
1488,1, 1 
62,1,-1 
3,1, 1 
*Equation 
4 
1490,1,-1 
1504,1, 1 
62,1,-1 
3,1, 1 
*Equation 
4 
1506,1,-1 
1520,1, 1 
62,1,-1 
3,1, 1 
*Equation 
4 
1540,1,-1 
1568,1, 1 
62,1,-1 
3,1, 1 
*Equation 
4 
1570,1,-1 
1584,1, 1 
62,1,-1 
3,1, 1 
*Equation 
4 
1586,1,-1 
1600,1, 1 
62,1,-1 
3,1, 1 
*Equation 
4 
1602,1,-1 
1616,1, 1 
62,1,-1 
3,1, 1 
*Equation 
4 
1618,1,-1 
1632,1, 1 
62,1,-1 
3,1, 1 
*Equation 
4 
1634,1,-1 
1648,1, 1 
62,1,-1 
3,1, 1 
*Equation 
4 
1650,1,-1 
1664,1, 1 
62,1,-1 
3,1, 1 
*Equation 
4 
1666,1,-1 
1680,1, 1 
62,1,-1 
3,1, 1 
*Equation 
4 
1682,1,-1 
1696,1, 1 
62,1,-1 
3,1, 1 
*Equation 
4 
1698,1,-1 
1712,1, 1 
62,1,-1 
3,1, 1 
*Equation 
4 
1714,1,-1 
1728,1, 1 
62,1,-1 
3,1, 1 
*Equation 
4 
1730,1,-1 
1744,1, 1 
62,1,-1 
3,1, 1 
*Equation 
4 
1746,1,-1 
1760,1, 1 
62,1,-1 
3,1, 1 
*Equation 
4 
1762,1,-1 
1776,1, 1 
62,1,-1 
3,1, 1 
*Equation 
4 
1796,1,-1 
1824,1, 1 
62,1,-1 
3,1, 1 
*Equation 
4 
1826,1,-1 
1840,1, 1 
62,1,-1 
3,1, 1 
*Equation 
4 
1842,1,-1 
1856,1, 1 
62,1,-1 
3,1, 1 
*Equation 
4 
1858,1,-1 
1872,1, 1 
62,1,-1 
3,1, 1 
*Equation 
4 
1874,1,-1 
1888,1, 1 
62,1,-1 
3,1, 1 
*Equation 
4 
1890,1,-1 
1904,1, 1 
62,1,-1 
3,1, 1 
*Equation 
4 
1906,1,-1 
1920,1, 1 
62,1,-1 
3,1, 1 
*Equation 
4 
1922,1,-1 
1936,1, 1 
62,1,-1 
3,1, 1 
*Equation 
4 
1938,1,-1 
1952,1, 1 
62,1,-1 
3,1, 1 
*Equation 
4 
1954,1,-1 
1968,1, 1 
62,1,-1 
3,1, 1 
*Equation 
4 
1970,1,-1 
1984,1, 1 
62,1,-1 
3,1, 1 
*Equation 
4 
1986,1,-1 
2000,1, 1 
62,1,-1 
3,1, 1 
*Equation 
4 
2002,1,-1 
2016,1, 1 
62,1,-1 
3,1, 1 
*Equation 
4 
2018,1,-1 
2032,1, 1 
62,1,-1 
3,1, 1 
*Equation 
4 
2052,1,-1 
2080,1, 1 
62,1,-1 
3,1, 1 
*Equation 
4 
2082,1,-1 
2096,1, 1 
62,1,-1 
3,1, 1 
*Equation 
4 
2098,1,-1 
2112,1, 1 
62,1,-1 
3,1, 1 
*Equation 
4 
2114,1,-1 
2128,1, 1 
62,1,-1 
3,1, 1 
*Equation 
4 
2130,1,-1 
2144,1, 1 
62,1,-1 
3,1, 1 
*Equation 
4 
2146,1,-1 
2160,1, 1 
62,1,-1 
3,1, 1 
*Equation 
4 
2162,1,-1 
2176,1, 1 
62,1,-1 
3,1, 1 
*Equation 
4 
2178,1,-1 
2192,1, 1 
62,1,-1 
3,1, 1 
*Equation 
4 
2194,1,-1 
2208,1, 1 
62,1,-1 
3,1, 1 
*Equation 
4 
2210,1,-1 
2224,1, 1 
62,1,-1 
3,1, 1 
*Equation 
4 
2226,1,-1 
2240,1, 1 
62,1,-1 
3,1, 1 
*Equation 
4 
2242,1,-1 
2256,1, 1 
62,1,-1 
3,1, 1 
*Equation 
4 
2258,1,-1 
2272,1, 1 
62,1,-1 
3,1, 1 
*Equation 
4 
2274,1,-1 
2288,1, 1 
62,1,-1 
3,1, 1 
*Equation 
4 
2308,1,-1 
2336,1, 1 
62,1,-1 
3,1, 1 
*Equation 
4 
2338,1,-1 
2352,1, 1 
62,1,-1 
3,1, 1 
*Equation 
4 
2354,1,-1 
2368,1, 1 
62,1,-1 
3,1, 1 
*Equation 
4 
2370,1,-1 
2384,1, 1 
62,1,-1 
3,1, 1 
*Equation 
4 
2386,1,-1 
2400,1, 1 
62,1,-1 
3,1, 1 
*Equation 
4 
2402,1,-1 
2416,1, 1 
62,1,-1 
3,1, 1 
*Equation 
4 
2418,1,-1 
2432,1, 1 
62,1,-1 
3,1, 1 
*Equation 
4 
2434,1,-1 
2448,1, 1 
62,1,-1 
3,1, 1 
*Equation 
4 
2450,1,-1 
2464,1, 1 
62,1,-1 
3,1, 1 
*Equation 
4 
2466,1,-1 
2480,1, 1 
62,1,-1 
3,1, 1 
*Equation 
4 
2482,1,-1 
2496,1, 1 
62,1,-1 
3,1, 1 
*Equation 
4 
2498,1,-1 
2512,1, 1 
62,1,-1 
3,1, 1 
*Equation 
4 
2514,1,-1 
2528,1, 1 
62,1,-1 
3,1, 1 
*Equation 
4 
2530,1,-1 
2544,1, 1 
62,1,-1 
3,1, 1 
*Equation 
4 
2564,1,-1 
2592,1, 1 
62,1,-1 
3,1, 1 
*Equation 
4 
2594,1,-1 
2608,1, 1 
62,1,-1 
3,1, 1 
*Equation 
4 
2610,1,-1 
2624,1, 1 
62,1,-1 
3,1, 1 
*Equation 
4 
2626,1,-1 
2640,1, 1 
62,1,-1 
3,1, 1 
*Equation 
4 
2642,1,-1 
2656,1, 1 
62,1,-1 
3,1, 1 
*Equation 
4 
2658,1,-1 
2672,1, 1 
62,1,-1 
3,1, 1 
*Equation 
4 
2674,1,-1 
2688,1, 1 
62,1,-1 
3,1, 1 
*Equation 
4 
2690,1,-1 
2704,1, 1 
62,1,-1 
3,1, 1 
*Equation 
4 
2706,1,-1 
2720,1, 1 
62,1,-1 
3,1, 1 
*Equation 
4 
2722,1,-1 
2736,1, 1 
62,1,-1 
3,1, 1 
*Equation 
4 
2738,1,-1 
2752,1, 1 
62,1,-1 
3,1, 1 
*Equation 
4 
2754,1,-1 
2768,1, 1 
62,1,-1 
3,1, 1 
*Equation 
4 
2770,1,-1 
2784,1, 1 
62,1,-1 
3,1, 1 
*Equation 
4 
2786,1,-1 
2800,1, 1 
62,1,-1 
3,1, 1 
*Equation 
4 
2820,1,-1 
2848,1, 1 
62,1,-1 
3,1, 1 
*Equation 
4 
2850,1,-1 
2864,1, 1 
62,1,-1 
3,1, 1 
*Equation 
4 
2866,1,-1 
2880,1, 1 
62,1,-1 
3,1, 1 
*Equation 
4 
2882,1,-1 
2896,1, 1 
62,1,-1 
3,1, 1 
*Equation 
4 
2898,1,-1 
2912,1, 1 
62,1,-1 
3,1, 1 
*Equation 
4 
2914,1,-1 
2928,1, 1 
62,1,-1 
3,1, 1 
*Equation 
4 
2930,1,-1 
2944,1, 1 
62,1,-1 
3,1, 1 
*Equation 
4 
2946,1,-1 
2960,1, 1 
62,1,-1 
3,1, 1 
*Equation 
4 
2962,1,-1 
2976,1, 1 
62,1,-1 
3,1, 1 
*Equation 
4 
2978,1,-1 
2992,1, 1 
62,1,-1 
3,1, 1 
*Equation 
4 
2994,1,-1 
3008,1, 1 
62,1,-1 
3,1, 1 
*Equation 
4 
3010,1,-1 
3024,1, 1 
62,1,-1 
3,1, 1 
*Equation 
4 
3026,1,-1 
3040,1, 1 
62,1,-1 
3,1, 1 
*Equation 
4 
3042,1,-1 
3056,1, 1 
62,1,-1 
3,1, 1 
*Equation 
4 
3076,1,-1 
3104,1, 1 
62,1,-1 
3,1, 1 
*Equation 
4 
3106,1,-1 
3120,1, 1 
62,1,-1 
3,1, 1 
*Equation 
4 
3122,1,-1 
3136,1, 1 
62,1,-1 
3,1, 1 
*Equation 
4 
3138,1,-1 
3152,1, 1 
62,1,-1 
3,1, 1 
*Equation 
4 
3154,1,-1 
3168,1, 1 
62,1,-1 
3,1, 1 
*Equation 
4 
3170,1,-1 
3184,1, 1 
62,1,-1 
3,1, 1 
*Equation 
4 
3186,1,-1 
3200,1, 1 
62,1,-1 
3,1, 1 
*Equation 
4 
3202,1,-1 
3216,1, 1 
62,1,-1 
3,1, 1 
*Equation 
4 
3218,1,-1 
3232,1, 1 
62,1,-1 
3,1, 1 
*Equation 
4 
3234,1,-1 
3248,1, 1 
62,1,-1 
3,1, 1 
*Equation 
4 
3250,1,-1 
3264,1, 1 
62,1,-1 
3,1, 1 
*Equation 
4 
3266,1,-1 
3280,1, 1 
62,1,-1 
3,1, 1 
*Equation 
4 
3282,1,-1 
3296,1, 1 
62,1,-1 
3,1, 1 
*Equation 
4 
3298,1,-1 
3312,1, 1 
62,1,-1 
3,1, 1 
*Equation 
4 
3332,1,-1 
3360,1, 1 
62,1,-1 
3,1, 1 
*Equation 
4 
3362,1,-1 
3376,1, 1 
62,1,-1 
3,1, 1 
*Equation 
4 
3378,1,-1 
3392,1, 1 
62,1,-1 
3,1, 1 
*Equation 
4 
3394,1,-1 
3408,1, 1 
62,1,-1 
3,1, 1 
*Equation 
4 
3410,1,-1 
3424,1, 1 
62,1,-1 
3,1, 1 
*Equation 
4 
3426,1,-1 
3440,1, 1 
62,1,-1 
3,1, 1 
*Equation 
4 
3442,1,-1 
3456,1, 1 
62,1,-1 
3,1, 1 
*Equation 
4 
3458,1,-1 
3472,1, 1 
62,1,-1 
3,1, 1 
*Equation 
4 
3474,1,-1 
3488,1, 1 
62,1,-1 
3,1, 1 
*Equation 
4 
3490,1,-1 
3504,1, 1 
62,1,-1 
3,1, 1 
*Equation 
4 
3506,1,-1 
3520,1, 1 
62,1,-1 
3,1, 1 
*Equation 
4 
3522,1,-1 
3536,1, 1 
62,1,-1 
3,1, 1 
*Equation 
4 
3538,1,-1 
3552,1, 1 
62,1,-1 
3,1, 1 
*Equation 
4 
3554,1,-1 
3568,1, 1 
62,1,-1 
3,1, 1 
*Equation 
4 
3588,1,-1 
3616,1, 1 
62,1,-1 
3,1, 1 
*Equation 
4 
3618,1,-1 
3632,1, 1 
62,1,-1 
3,1, 1 
*Equation 
4 
3634,1,-1 
3648,1, 1 
62,1,-1 
3,1, 1 
*Equation 
4 
3650,1,-1 
3664,1, 1 
62,1,-1 
3,1, 1 
*Equation 
4 
3666,1,-1 
3680,1, 1 
62,1,-1 
3,1, 1 
*Equation 
4 
3682,1,-1 
3696,1, 1 
62,1,-1 
3,1, 1 
*Equation 
4 
3698,1,-1 
3712,1, 1 
62,1,-1 
3,1, 1 
*Equation 
4 
3714,1,-1 
3728,1, 1 
62,1,-1 
3,1, 1 
*Equation 
4 
3730,1,-1 
3744,1, 1 
62,1,-1 
3,1, 1 
*Equation 
4 
3746,1,-1 
3760,1, 1 
62,1,-1 
3,1, 1 
*Equation 
4 
3762,1,-1 
3776,1, 1 
62,1,-1 
3,1, 1 
*Equation 
4 
3778,1,-1 
3792,1, 1 
62,1,-1 
3,1, 1 
*Equation 
4 
3794,1,-1 
3808,1, 1 
62,1,-1 
3,1, 1 
*Equation 
4 
3810,1,-1 
3824,1, 1 
62,1,-1 
3,1, 1 
**** 
**** Y-DIR 
*Equation 
4 
6,2,-1 
63,2, 1 
62,2,-1 
3,2, 1 
*Equation 
4 
66,2,-1 
95,2, 1 
62,2,-1 
3,2, 1 
*Equation 
4 
98,2,-1 
127,2, 1 
62,2,-1 
3,2, 1 
*Equation 
4 
130,2,-1 
159,2, 1 
62,2,-1 
3,2, 1 
*Equation 
4 
162,2,-1 
191,2, 1 
62,2,-1 
3,2, 1 
*Equation 
4 
194,2,-1 
223,2, 1 
62,2,-1 
3,2, 1 
*Equation 
4 
226,2,-1 
255,2, 1 
62,2,-1 
3,2, 1 
*Equation 
4 
258,2,-1 
287,2, 1 
62,2,-1 
3,2, 1 
*Equation 
4 
290,2,-1 
319,2, 1 
62,2,-1 
3,2, 1 
*Equation 
4 
322,2,-1 
351,2, 1 
62,2,-1 
3,2, 1 
*Equation 
4 
354,2,-1 
383,2, 1 
62,2,-1 
3,2, 1 
*Equation 
4 
386,2,-1 
415,2, 1 
62,2,-1 
3,2, 1 
*Equation 
4 
418,2,-1 
447,2, 1 
62,2,-1 
3,2, 1 
*Equation 
4 
450,2,-1 
479,2, 1 
62,2,-1 
3,2, 1 
*Equation 
4 
516,2,-1 
544,2, 1 
62,2,-1 
3,2, 1 
*Equation 
4 
546,2,-1 
560,2, 1 
62,2,-1 
3,2, 1 
*Equation 
4 
562,2,-1 
576,2, 1 
62,2,-1 
3,2, 1 
*Equation 
4 
578,2,-1 
592,2, 1 
62,2,-1 
3,2, 1 
*Equation 
4 
594,2,-1 
608,2, 1 
62,2,-1 
3,2, 1 
*Equation 
4 
610,2,-1 
624,2, 1 
62,2,-1 
3,2, 1 
*Equation 
4 
626,2,-1 
640,2, 1 
62,2,-1 
3,2, 1 
*Equation 
4 
642,2,-1 
656,2, 1 
62,2,-1 
3,2, 1 
*Equation 
4 
658,2,-1 
672,2, 1 
62,2,-1 
3,2, 1 
*Equation 
4 
674,2,-1 
688,2, 1 
62,2,-1 
3,2, 1 
*Equation 
4 
690,2,-1 
704,2, 1 
62,2,-1 
3,2, 1 
*Equation 
4 
706,2,-1 
720,2, 1 
62,2,-1 
3,2, 1 
*Equation 
4 
722,2,-1 
736,2, 1 
62,2,-1 
3,2, 1 
*Equation 
4 
738,2,-1 
752,2, 1 
62,2,-1 
3,2, 1 
*Equation 
4 
772,2,-1 
800,2, 1 
62,2,-1 
3,2, 1 
*Equation 
4 
802,2,-1 
816,2, 1 
62,2,-1 
3,2, 1 
*Equation 
4 
818,2,-1 
832,2, 1 
62,2,-1 
3,2, 1 
*Equation 
4 
834,2,-1 
848,2, 1 
62,2,-1 
3,2, 1 
*Equation 
4 
850,2,-1 
864,2, 1 
62,2,-1 
3,2, 1 
*Equation 
4 
866,2,-1 
880,2, 1 
62,2,-1 
3,2, 1 
*Equation 
4 
882,2,-1 
896,2, 1 
62,2,-1 
3,2, 1 
*Equation 
4 
898,2,-1 
912,2, 1 
62,2,-1 
3,2, 1 
*Equation 
4 
914,2,-1 
928,2, 1 
62,2,-1 
3,2, 1 
*Equation 
4 
930,2,-1 
944,2, 1 
62,2,-1 
3,2, 1 
*Equation 
4 
946,2,-1 
960,2, 1 
62,2,-1 
3,2, 1 
*Equation 
4 
962,2,-1 
976,2, 1 
62,2,-1 
3,2, 1 
*Equation 
4 
978,2,-1 
992,2, 1 
62,2,-1 
3,2, 1 
*Equation 
4 
994,2,-1 
1008,2, 1 
62,2,-1 
3,2, 1 
*Equation 
4 
1028,2,-1 
1056,2, 1 
62,2,-1 
3,2, 1 
*Equation 
4 
1058,2,-1 
1072,2, 1 
62,2,-1 
3,2, 1 
*Equation 
4 
1074,2,-1 
1088,2, 1 
62,2,-1 
3,2, 1 
*Equation 
4 
1090,2,-1 
1104,2, 1 
62,2,-1 
3,2, 1 
*Equation 
4 
1106,2,-1 
1120,2, 1 
62,2,-1 
3,2, 1 
*Equation 
4 
1122,2,-1 
1136,2, 1 
62,2,-1 
3,2, 1 
*Equation 
4 
1138,2,-1 
1152,2, 1 
62,2,-1 
3,2, 1 
*Equation 
4 
1154,2,-1 
1168,2, 1 
62,2,-1 
3,2, 1 
*Equation 
4 
1170,2,-1 
1184,2, 1 
62,2,-1 
3,2, 1 
*Equation 
4 
1186,2,-1 
1200,2, 1 
62,2,-1 
3,2, 1 
*Equation 
4 
1202,2,-1 
1216,2, 1 
62,2,-1 
3,2, 1 
*Equation 
4 
1218,2,-1 
1232,2, 1 
62,2,-1 
3,2, 1 
*Equation 
4 
1234,2,-1 
1248,2, 1 
62,2,-1 
3,2, 1 
*Equation 
4 
1250,2,-1 
1264,2, 1 
62,2,-1 
3,2, 1 
*Equation 
4 
1284,2,-1 
1312,2, 1 
62,2,-1 
3,2, 1 
*Equation 
4 
1314,2,-1 
1328,2, 1 
62,2,-1 
3,2, 1 
*Equation 
4 
1330,2,-1 
1344,2, 1 
62,2,-1 
3,2, 1 
*Equation 
4 
1346,2,-1 
1360,2, 1 
62,2,-1 
3,2, 1 
*Equation 
4 
1362,2,-1 
1376,2, 1 
62,2,-1 
3,2, 1 
*Equation 
4 
1378,2,-1 
1392,2, 1 
62,2,-1 
3,2, 1 
*Equation 
4 
1394,2,-1 
1408,2, 1 
62,2,-1 
3,2, 1 
*Equation 
4 
1410,2,-1 
1424,2, 1 
62,2,-1 
3,2, 1 
*Equation 
4 
1426,2,-1 
1440,2, 1 
62,2,-1 
3,2, 1 
*Equation 
4 
1442,2,-1 
1456,2, 1 
62,2,-1 
3,2, 1 
*Equation 
4 
1458,2,-1 
1472,2, 1 
62,2,-1 
3,2, 1 
*Equation 
4 
1474,2,-1 
1488,2, 1 
62,2,-1 
3,2, 1 
*Equation 
4 
1490,2,-1 
1504,2, 1 
62,2,-1 
3,2, 1 
*Equation 
4 
1506,2,-1 
1520,2, 1 
62,2,-1 
3,2, 1 
*Equation 
4 
1540,2,-1 
1568,2, 1 
62,2,-1 
3,2, 1 
*Equation 
4 
1570,2,-1 
1584,2, 1 
62,2,-1 
3,2, 1 
*Equation 
4 
1586,2,-1 
1600,2, 1 
62,2,-1 
3,2, 1 
*Equation 
4 
1602,2,-1 
1616,2, 1 
62,2,-1 
3,2, 1 
*Equation 
4 
1618,2,-1 
1632,2, 1 
62,2,-1 
3,2, 1 
*Equation 
4 
1634,2,-1 
1648,2, 1 
62,2,-1 
3,2, 1 
*Equation 
4 
1650,2,-1 
1664,2, 1 
62,2,-1 
3,2, 1 
*Equation 
4 
1666,2,-1 
1680,2, 1 
62,2,-1 
3,2, 1 
*Equation 
4 
1682,2,-1 
1696,2, 1 
62,2,-1 
3,2, 1 
*Equation 
4 
1698,2,-1 
1712,2, 1 
62,2,-1 
3,2, 1 
*Equation 
4 
1714,2,-1 
1728,2, 1 
62,2,-1 
3,2, 1 
*Equation 
4 
1730,2,-1 
1744,2, 1 
62,2,-1 
3,2, 1 
*Equation 
4 
1746,2,-1 
1760,2, 1 
62,2,-1 
3,2, 1 
*Equation 
4 
1762,2,-1 
1776,2, 1 
62,2,-1 
3,2, 1 
*Equation 
4 
1796,2,-1 
1824,2, 1 
62,2,-1 
3,2, 1 
*Equation 
4 
1826,2,-1 
1840,2, 1 
62,2,-1 
3,2, 1 
*Equation 
4 
1842,2,-1 
1856,2, 1 
62,2,-1 
3,2, 1 
*Equation 
4 
1858,2,-1 
1872,2, 1 
62,2,-1 
3,2, 1 
*Equation 
4 
1874,2,-1 
1888,2, 1 
62,2,-1 
3,2, 1 
*Equation 
4 
1890,2,-1 
1904,2, 1 
62,2,-1 
3,2, 1 
*Equation 
4 
1906,2,-1 
1920,2, 1 
62,2,-1 
3,2, 1 
*Equation 
4 
1922,2,-1 
1936,2, 1 
62,2,-1 
3,2, 1 
*Equation 
4 
1938,2,-1 
1952,2, 1 
62,2,-1 
3,2, 1 
*Equation 
4 
1954,2,-1 
1968,2, 1 
62,2,-1 
3,2, 1 
*Equation 
4 
1970,2,-1 
1984,2, 1 
62,2,-1 
3,2, 1 
*Equation 
4 
1986,2,-1 
2000,2, 1 
62,2,-1 
3,2, 1 
*Equation 
4 
2002,2,-1 
2016,2, 1 
62,2,-1 
3,2, 1 
*Equation 
4 
2018,2,-1 
2032,2, 1 
62,2,-1 
3,2, 1 
*Equation 
4 
2052,2,-1 
2080,2, 1 
62,2,-1 
3,2, 1 
*Equation 
4 
2082,2,-1 
2096,2, 1 
62,2,-1 
3,2, 1 
*Equation 
4 
2098,2,-1 
2112,2, 1 
62,2,-1 
3,2, 1 
*Equation 
4 
2114,2,-1 
2128,2, 1 
62,2,-1 
3,2, 1 
*Equation 
4 
2130,2,-1 
2144,2, 1 
62,2,-1 
3,2, 1 
*Equation 
4 
2146,2,-1 
2160,2, 1 
62,2,-1 
3,2, 1 
*Equation 
4 
2162,2,-1 
2176,2, 1 
62,2,-1 
3,2, 1 
*Equation 
4 
2178,2,-1 
2192,2, 1 
62,2,-1 
3,2, 1 
*Equation 
4 
2194,2,-1 
2208,2, 1 
62,2,-1 
3,2, 1 
*Equation 
4 
2210,2,-1 
2224,2, 1 
62,2,-1 
3,2, 1 
*Equation 
4 
2226,2,-1 
2240,2, 1 
62,2,-1 
3,2, 1 
*Equation 
4 
2242,2,-1 
2256,2, 1 
62,2,-1 
3,2, 1 
*Equation 
4 
2258,2,-1 
2272,2, 1 
62,2,-1 
3,2, 1 
*Equation 
4 
2274,2,-1 
2288,2, 1 
62,2,-1 
3,2, 1 
*Equation 
4 
2308,2,-1 
2336,2, 1 
62,2,-1 
3,2, 1 
*Equation 
4 
2338,2,-1 
2352,2, 1 
62,2,-1 
3,2, 1 
*Equation 
4 
2354,2,-1 
2368,2, 1 
62,2,-1 
3,2, 1 
*Equation 
4 
2370,2,-1 
2384,2, 1 
62,2,-1 
3,2, 1 
*Equation 
4 
2386,2,-1 
2400,2, 1 
62,2,-1 
3,2, 1 
*Equation 
4 
2402,2,-1 
2416,2, 1 
62,2,-1 
3,2, 1 
*Equation 
4 
2418,2,-1 
2432,2, 1 
62,2,-1 
3,2, 1 
*Equation 
4 
2434,2,-1 
2448,2, 1 
62,2,-1 
3,2, 1 
*Equation 
4 
2450,2,-1 
2464,2, 1 
62,2,-1 
3,2, 1 
*Equation 
4 
2466,2,-1 
2480,2, 1 
62,2,-1 
3,2, 1 
*Equation 
4 
2482,2,-1 
2496,2, 1 
62,2,-1 
3,2, 1 
*Equation 
4 
2498,2,-1 
2512,2, 1 
62,2,-1 
3,2, 1 
*Equation 
4 
2514,2,-1 
2528,2, 1 
62,2,-1 
3,2, 1 
*Equation 
4 
2530,2,-1 
2544,2, 1 
62,2,-1 
3,2, 1 
*Equation 
4 
2564,2,-1 
2592,2, 1 
62,2,-1 
3,2, 1 
*Equation 
4 
2594,2,-1 
2608,2, 1 
62,2,-1 
3,2, 1 
*Equation 
4 
2610,2,-1 
2624,2, 1 
62,2,-1 
3,2, 1 
*Equation 
4 
2626,2,-1 
2640,2, 1 
62,2,-1 
3,2, 1 
*Equation 
4 
2642,2,-1 
2656,2, 1 
62,2,-1 
3,2, 1 
*Equation 
4 
2658,2,-1 
2672,2, 1 
62,2,-1 
3,2, 1 
*Equation 
4 
2674,2,-1 
2688,2, 1 
62,2,-1 
3,2, 1 
*Equation 
4 
2690,2,-1 
2704,2, 1 
62,2,-1 
3,2, 1 
*Equation 
4 
2706,2,-1 
2720,2, 1 
62,2,-1 
3,2, 1 
*Equation 
4 
2722,2,-1 
2736,2, 1 
62,2,-1 
3,2, 1 
*Equation 
4 
2738,2,-1 
2752,2, 1 
62,2,-1 
3,2, 1 
*Equation 
4 
2754,2,-1 
2768,2, 1 
62,2,-1 
3,2, 1 
*Equation 
4 
2770,2,-1 
2784,2, 1 
62,2,-1 
3,2, 1 
*Equation 
4 
2786,2,-1 
2800,2, 1 
62,2,-1 
3,2, 1 
*Equation 
4 
2820,2,-1 
2848,2, 1 
62,2,-1 
3,2, 1 
*Equation 
4 
2850,2,-1 
2864,2, 1 
62,2,-1 
3,2, 1 
*Equation 
4 
2866,2,-1 
2880,2, 1 
62,2,-1 
3,2, 1 
*Equation 
4 
2882,2,-1 
2896,2, 1 
62,2,-1 
3,2, 1 
*Equation 
4 
2898,2,-1 
2912,2, 1 
62,2,-1 
3,2, 1 
*Equation 
4 
2914,2,-1 
2928,2, 1 
62,2,-1 
3,2, 1 
*Equation 
4 
2930,2,-1 
2944,2, 1 
62,2,-1 
3,2, 1 
*Equation 
4 
2946,2,-1 
2960,2, 1 
62,2,-1 
3,2, 1 
*Equation 
4 
2962,2,-1 
2976,2, 1 
62,2,-1 
3,2, 1 
*Equation 
4 
2978,2,-1 
2992,2, 1 
62,2,-1 
3,2, 1 
*Equation 
4 
2994,2,-1 
3008,2, 1 
62,2,-1 
3,2, 1 
*Equation 
4 
3010,2,-1 
3024,2, 1 
62,2,-1 
3,2, 1 
*Equation 
4 
3026,2,-1 
3040,2, 1 
62,2,-1 
3,2, 1 
*Equation 
4 
3042,2,-1 
3056,2, 1 
62,2,-1 
3,2, 1 
*Equation 
4 
3076,2,-1 
3104,2, 1 
62,2,-1 
3,2, 1 
*Equation 
4 
3106,2,-1 
3120,2, 1 
62,2,-1 
3,2, 1 
*Equation 
4 
3122,2,-1 
3136,2, 1 
62,2,-1 
3,2, 1 
*Equation 
4 
3138,2,-1 
3152,2, 1 
62,2,-1 
3,2, 1 
*Equation 
4 
3154,2,-1 
3168,2, 1 
62,2,-1 
3,2, 1 
*Equation 
4 
3170,2,-1 
3184,2, 1 
62,2,-1 
3,2, 1 
*Equation 
4 
3186,2,-1 
3200,2, 1 
62,2,-1 
3,2, 1 
*Equation 
4 
3202,2,-1 
3216,2, 1 
62,2,-1 
3,2, 1 
*Equation 
4 
3218,2,-1 
3232,2, 1 
62,2,-1 
3,2, 1 
*Equation 
4 
3234,2,-1 
3248,2, 1 
62,2,-1 
3,2, 1 
*Equation 
4 
3250,2,-1 
3264,2, 1 
62,2,-1 
3,2, 1 
*Equation 
4 
3266,2,-1 
3280,2, 1 
62,2,-1 
3,2, 1 
*Equation 
4 
3282,2,-1 
3296,2, 1 
62,2,-1 
3,2, 1 
*Equation 
4 
3298,2,-1 
3312,2, 1 
62,2,-1 
3,2, 1 
*Equation 
4 
3332,2,-1 
3360,2, 1 
62,2,-1 
3,2, 1 
*Equation 
4 
3362,2,-1 
3376,2, 1 
62,2,-1 
3,2, 1 
*Equation 
4 
3378,2,-1 
3392,2, 1 
62,2,-1 
3,2, 1 
*Equation 
4 
3394,2,-1 
3408,2, 1 
62,2,-1 
3,2, 1 
*Equation 
4 
3410,2,-1 
3424,2, 1 
62,2,-1 
3,2, 1 
*Equation 
4 
3426,2,-1 
3440,2, 1 
62,2,-1 
3,2, 1 
*Equation 
4 
3442,2,-1 
3456,2, 1 
62,2,-1 
3,2, 1 
*Equation 
4 
3458,2,-1 
3472,2, 1 
62,2,-1 
3,2, 1 
*Equation 
4 
3474,2,-1 
3488,2, 1 
62,2,-1 
3,2, 1 
*Equation 
4 
3490,2,-1 
3504,2, 1 
62,2,-1 
3,2, 1 
*Equation 
4 
3506,2,-1 
3520,2, 1 
62,2,-1 
3,2, 1 
*Equation 
4 
3522,2,-1 
3536,2, 1 
62,2,-1 
3,2, 1 
*Equation 
4 
3538,2,-1 
3552,2, 1 
62,2,-1 
3,2, 1 
*Equation 
4 
3554,2,-1 
3568,2, 1 
62,2,-1 
3,2, 1 
*Equation 
4 
3588,2,-1 
3616,2, 1 
62,2,-1 
3,2, 1 
*Equation 
4 
3618,2,-1 
3632,2, 1 
62,2,-1 
3,2, 1 
*Equation 
4 
3634,2,-1 
3648,2, 1 
62,2,-1 
3,2, 1 
*Equation 
4 
3650,2,-1 
3664,2, 1 
62,2,-1 
3,2, 1 
*Equation 
4 
3666,2,-1 
3680,2, 1 
62,2,-1 
3,2, 1 
*Equation 
4 
3682,2,-1 
3696,2, 1 
62,2,-1 
3,2, 1 
*Equation 
4 
3698,2,-1 
3712,2, 1 
62,2,-1 
3,2, 1 
*Equation 
4 
3714,2,-1 
3728,2, 1 
62,2,-1 
3,2, 1 
*Equation 
4 
3730,2,-1 
3744,2, 1 
62,2,-1 
3,2, 1 
*Equation 
4 
3746,2,-1 
3760,2, 1 
62,2,-1 
3,2, 1 
*Equation 
4 
3762,2,-1 
3776,2, 1 
62,2,-1 
3,2, 1 
*Equation 
4 
3778,2,-1 
3792,2, 1 
62,2,-1 
3,2, 1 
*Equation 
4 
3794,2,-1 
3808,2, 1 
62,2,-1 
3,2, 1 
*Equation 
4 
3810,2,-1 
3824,2, 1 
62,2,-1 
3,2, 1 
**** 
**** Z-DIR 
*Equation 
4 
6,3,-1 
63,3, 1 
62,3,-1 
3,3, 1 
*Equation 
4 
66,3,-1 
95,3, 1 
62,3,-1 
3,3, 1 
*Equation 
4 
98,3,-1 
127,3, 1 
62,3,-1 
3,3, 1 
*Equation 
4 
130,3,-1 
159,3, 1 
62,3,-1 
3,3, 1 
*Equation 
4 
162,3,-1 
191,3, 1 
62,3,-1 
3,3, 1 
*Equation 
4 
194,3,-1 
223,3, 1 
62,3,-1 
3,3, 1 
*Equation 
4 
226,3,-1 
255,3, 1 
62,3,-1 
3,3, 1 
*Equation 
4 
258,3,-1 
287,3, 1 
62,3,-1 
3,3, 1 
*Equation 
4 
290,3,-1 
319,3, 1 
62,3,-1 
3,3, 1 
*Equation 
4 
322,3,-1 
351,3, 1 
62,3,-1 
3,3, 1 
*Equation 
4 
354,3,-1 
383,3, 1 
62,3,-1 
3,3, 1 
*Equation 
4 
386,3,-1 
415,3, 1 
62,3,-1 
3,3, 1 
*Equation 
4 
418,3,-1 
447,3, 1 
62,3,-1 
3,3, 1 
*Equation 
4 
450,3,-1 
479,3, 1 
62,3,-1 
3,3, 1 
*Equation 
4 
516,3,-1 
544,3, 1 
62,3,-1 
3,3, 1 
*Equation 
4 
546,3,-1 
560,3, 1 
62,3,-1 
3,3, 1 
*Equation 
4 
562,3,-1 
576,3, 1 
62,3,-1 
3,3, 1 
*Equation 
4 
578,3,-1 
592,3, 1 
62,3,-1 
3,3, 1 
*Equation 
4 
594,3,-1 
608,3, 1 
62,3,-1 
3,3, 1 
*Equation 
4 
610,3,-1 
624,3, 1 
62,3,-1 
3,3, 1 
*Equation 
4 
626,3,-1 
640,3, 1 
62,3,-1 
3,3, 1 
*Equation 
4 
642,3,-1 
656,3, 1 
62,3,-1 
3,3, 1 
*Equation 
4 
658,3,-1 
672,3, 1 
62,3,-1 
3,3, 1 
*Equation 
4 
674,3,-1 
688,3, 1 
62,3,-1 
3,3, 1 
*Equation 
4 
690,3,-1 
704,3, 1 
62,3,-1 
3,3, 1 
*Equation 
4 
706,3,-1 
720,3, 1 
62,3,-1 
3,3, 1 
*Equation 
4 
722,3,-1 
736,3, 1 
62,3,-1 
3,3, 1 
*Equation 
4 
738,3,-1 
752,3, 1 
62,3,-1 
3,3, 1 
*Equation 
4 
772,3,-1 
800,3, 1 
62,3,-1 
3,3, 1 
*Equation 
4 
802,3,-1 
816,3, 1 
62,3,-1 
3,3, 1 
*Equation 
4 
818,3,-1 
832,3, 1 
62,3,-1 
3,3, 1 
*Equation 
4 
834,3,-1 
848,3, 1 
62,3,-1 
3,3, 1 
*Equation 
4 
850,3,-1 
864,3, 1 
62,3,-1 
3,3, 1 
*Equation 
4 
866,3,-1 
880,3, 1 
62,3,-1 
3,3, 1 
*Equation 
4 
882,3,-1 
896,3, 1 
62,3,-1 
3,3, 1 
*Equation 
4 
898,3,-1 
912,3, 1 
62,3,-1 
3,3, 1 
*Equation 
4 
914,3,-1 
928,3, 1 
62,3,-1 
3,3, 1 
*Equation 
4 
930,3,-1 
944,3, 1 
62,3,-1 
3,3, 1 
*Equation 
4 
946,3,-1 
960,3, 1 
62,3,-1 
3,3, 1 
*Equation 
4 
962,3,-1 
976,3, 1 
62,3,-1 
3,3, 1 
*Equation 
4 
978,3,-1 
992,3, 1 
62,3,-1 
3,3, 1 
*Equation 
4 
994,3,-1 
1008,3, 1 
62,3,-1 
3,3, 1 
*Equation 
4 
1028,3,-1 
1056,3, 1 
62,3,-1 
3,3, 1 
*Equation 
4 
1058,3,-1 
1072,3, 1 
62,3,-1 
3,3, 1 
*Equation 
4 
1074,3,-1 
1088,3, 1 
62,3,-1 
3,3, 1 
*Equation 
4 
1090,3,-1 
1104,3, 1 
62,3,-1 
3,3, 1 
*Equation 
4 
1106,3,-1 
1120,3, 1 
62,3,-1 
3,3, 1 
*Equation 
4 
1122,3,-1 
1136,3, 1 
62,3,-1 
3,3, 1 
*Equation 
4 
1138,3,-1 
1152,3, 1 
62,3,-1 
3,3, 1 
*Equation 
4 
1154,3,-1 
1168,3, 1 
62,3,-1 
3,3, 1 
*Equation 
4 
1170,3,-1 
1184,3, 1 
62,3,-1 
3,3, 1 
*Equation 
4 
1186,3,-1 
1200,3, 1 
62,3,-1 
3,3, 1 
*Equation 
4 
1202,3,-1 
1216,3, 1 
62,3,-1 
3,3, 1 
*Equation 
4 
1218,3,-1 
1232,3, 1 
62,3,-1 
3,3, 1 
*Equation 
4 
1234,3,-1 
1248,3, 1 
62,3,-1 
3,3, 1 
*Equation 
4 
1250,3,-1 
1264,3, 1 
62,3,-1 
3,3, 1 
*Equation 
4 
1284,3,-1 
1312,3, 1 
62,3,-1 
3,3, 1 
*Equation 
4 
1314,3,-1 
1328,3, 1 
62,3,-1 
3,3, 1 
*Equation 
4 
1330,3,-1 
1344,3, 1 
62,3,-1 
3,3, 1 
*Equation 
4 
1346,3,-1 
1360,3, 1 
62,3,-1 
3,3, 1 
*Equation 
4 
1362,3,-1 
1376,3, 1 
62,3,-1 
3,3, 1 
*Equation 
4 
1378,3,-1 
1392,3, 1 
62,3,-1 
3,3, 1 
*Equation 
4 
1394,3,-1 
1408,3, 1 
62,3,-1 
3,3, 1 
*Equation 
4 
1410,3,-1 
1424,3, 1 
62,3,-1 
3,3, 1 
*Equation 
4 
1426,3,-1 
1440,3, 1 
62,3,-1 
3,3, 1 
*Equation 
4 
1442,3,-1 
1456,3, 1 
62,3,-1 
3,3, 1 
*Equation 
4 
1458,3,-1 
1472,3, 1 
62,3,-1 
3,3, 1 
*Equation 
4 
1474,3,-1 
1488,3, 1 
62,3,-1 
3,3, 1 
*Equation 
4 
1490,3,-1 
1504,3, 1 
62,3,-1 
3,3, 1 
*Equation 
4 
1506,3,-1 
1520,3, 1 
62,3,-1 
3,3, 1 
*Equation 
4 
1540,3,-1 
1568,3, 1 
62,3,-1 
3,3, 1 
*Equation 
4 
1570,3,-1 
1584,3, 1 
62,3,-1 
3,3, 1 
*Equation 
4 
1586,3,-1 
1600,3, 1 
62,3,-1 
3,3, 1 
*Equation 
4 
1602,3,-1 
1616,3, 1 
62,3,-1 
3,3, 1 
*Equation 
4 
1618,3,-1 
1632,3, 1 
62,3,-1 
3,3, 1 
*Equation 
4 
1634,3,-1 
1648,3, 1 
62,3,-1 
3,3, 1 
*Equation 
4 
1650,3,-1 
1664,3, 1 
62,3,-1 
3,3, 1 
*Equation 
4 
1666,3,-1 
1680,3, 1 
62,3,-1 
3,3, 1 
*Equation 
4 
1682,3,-1 
1696,3, 1 
62,3,-1 
3,3, 1 
*Equation 
4 
1698,3,-1 
1712,3, 1 
62,3,-1 
3,3, 1 
*Equation 
4 
1714,3,-1 
1728,3, 1 
62,3,-1 
3,3, 1 
*Equation 
4 
1730,3,-1 
1744,3, 1 
62,3,-1 
3,3, 1 
*Equation 
4 
1746,3,-1 
1760,3, 1 
62,3,-1 
3,3, 1 
*Equation 
4 
1762,3,-1 
1776,3, 1 
62,3,-1 
3,3, 1 
*Equation 
4 
1796,3,-1 
1824,3, 1 
62,3,-1 
3,3, 1 
*Equation 
4 
1826,3,-1 
1840,3, 1 
62,3,-1 
3,3, 1 
*Equation 
4 
1842,3,-1 
1856,3, 1 
62,3,-1 
3,3, 1 
*Equation 
4 
1858,3,-1 
1872,3, 1 
62,3,-1 
3,3, 1 
*Equation 
4 
1874,3,-1 
1888,3, 1 
62,3,-1 
3,3, 1 
*Equation 
4 
1890,3,-1 
1904,3, 1 
62,3,-1 
3,3, 1 
*Equation 
4 
1906,3,-1 
1920,3, 1 
62,3,-1 
3,3, 1 
*Equation 
4 
1922,3,-1 
1936,3, 1 
62,3,-1 
3,3, 1 
*Equation 
4 
1938,3,-1 
1952,3, 1 
62,3,-1 
3,3, 1 
*Equation 
4 
1954,3,-1 
1968,3, 1 
62,3,-1 
3,3, 1 
*Equation 
4 
1970,3,-1 
1984,3, 1 
62,3,-1 
3,3, 1 
*Equation 
4 
1986,3,-1 
2000,3, 1 
62,3,-1 
3,3, 1 
*Equation 
4 
2002,3,-1 
2016,3, 1 
62,3,-1 
3,3, 1 
*Equation 
4 
2018,3,-1 
2032,3, 1 
62,3,-1 
3,3, 1 
*Equation 
4 
2052,3,-1 
2080,3, 1 
62,3,-1 
3,3, 1 
*Equation 
4 
2082,3,-1 
2096,3, 1 
62,3,-1 
3,3, 1 
*Equation 
4 
2098,3,-1 
2112,3, 1 
62,3,-1 
3,3, 1 
*Equation 
4 
2114,3,-1 
2128,3, 1 
62,3,-1 
3,3, 1 
*Equation 
4 
2130,3,-1 
2144,3, 1 
62,3,-1 
3,3, 1 
*Equation 
4 
2146,3,-1 
2160,3, 1 
62,3,-1 
3,3, 1 
*Equation 
4 
2162,3,-1 
2176,3, 1 
62,3,-1 
3,3, 1 
*Equation 
4 
2178,3,-1 
2192,3, 1 
62,3,-1 
3,3, 1 
*Equation 
4 
2194,3,-1 
2208,3, 1 
62,3,-1 
3,3, 1 
*Equation 
4 
2210,3,-1 
2224,3, 1 
62,3,-1 
3,3, 1 
*Equation 
4 
2226,3,-1 
2240,3, 1 
62,3,-1 
3,3, 1 
*Equation 
4 
2242,3,-1 
2256,3, 1 
62,3,-1 
3,3, 1 
*Equation 
4 
2258,3,-1 
2272,3, 1 
62,3,-1 
3,3, 1 
*Equation 
4 
2274,3,-1 
2288,3, 1 
62,3,-1 
3,3, 1 
*Equation 
4 
2308,3,-1 
2336,3, 1 
62,3,-1 
3,3, 1 
*Equation 
4 
2338,3,-1 
2352,3, 1 
62,3,-1 
3,3, 1 
*Equation 
4 
2354,3,-1 
2368,3, 1 
62,3,-1 
3,3, 1 
*Equation 
4 
2370,3,-1 
2384,3, 1 
62,3,-1 
3,3, 1 
*Equation 
4 
2386,3,-1 
2400,3, 1 
62,3,-1 
3,3, 1 
*Equation 
4 
2402,3,-1 
2416,3, 1 
62,3,-1 
3,3, 1 
*Equation 
4 
2418,3,-1 
2432,3, 1 
62,3,-1 
3,3, 1 
*Equation 
4 
2434,3,-1 
2448,3, 1 
62,3,-1 
3,3, 1 
*Equation 
4 
2450,3,-1 
2464,3, 1 
62,3,-1 
3,3, 1 
*Equation 
4 
2466,3,-1 
2480,3, 1 
62,3,-1 
3,3, 1 
*Equation 
4 
2482,3,-1 
2496,3, 1 
62,3,-1 
3,3, 1 
*Equation 
4 
2498,3,-1 
2512,3, 1 
62,3,-1 
3,3, 1 
*Equation 
4 
2514,3,-1 
2528,3, 1 
62,3,-1 
3,3, 1 
*Equation 
4 
2530,3,-1 
2544,3, 1 
62,3,-1 
3,3, 1 
*Equation 
4 
2564,3,-1 
2592,3, 1 
62,3,-1 
3,3, 1 
*Equation 
4 
2594,3,-1 
2608,3, 1 
62,3,-1 
3,3, 1 
*Equation 
4 
2610,3,-1 
2624,3, 1 
62,3,-1 
3,3, 1 
*Equation 
4 
2626,3,-1 
2640,3, 1 
62,3,-1 
3,3, 1 
*Equation 
4 
2642,3,-1 
2656,3, 1 
62,3,-1 
3,3, 1 
*Equation 
4 
2658,3,-1 
2672,3, 1 
62,3,-1 
3,3, 1 
*Equation 
4 
2674,3,-1 
2688,3, 1 
62,3,-1 
3,3, 1 
*Equation 
4 
2690,3,-1 
2704,3, 1 
62,3,-1 
3,3, 1 
*Equation 
4 
2706,3,-1 
2720,3, 1 
62,3,-1 
3,3, 1 
*Equation 
4 
2722,3,-1 
2736,3, 1 
62,3,-1 
3,3, 1 
*Equation 
4 
2738,3,-1 
2752,3, 1 
62,3,-1 
3,3, 1 
*Equation 
4 
2754,3,-1 
2768,3, 1 
62,3,-1 
3,3, 1 
*Equation 
4 
2770,3,-1 
2784,3, 1 
62,3,-1 
3,3, 1 
*Equation 
4 
2786,3,-1 
2800,3, 1 
62,3,-1 
3,3, 1 
*Equation 
4 
2820,3,-1 
2848,3, 1 
62,3,-1 
3,3, 1 
*Equation 
4 
2850,3,-1 
2864,3, 1 
62,3,-1 
3,3, 1 
*Equation 
4 
2866,3,-1 
2880,3, 1 
62,3,-1 
3,3, 1 
*Equation 
4 
2882,3,-1 
2896,3, 1 
62,3,-1 
3,3, 1 
*Equation 
4 
2898,3,-1 
2912,3, 1 
62,3,-1 
3,3, 1 
*Equation 
4 
2914,3,-1 
2928,3, 1 
62,3,-1 
3,3, 1 
*Equation 
4 
2930,3,-1 
2944,3, 1 
62,3,-1 
3,3, 1 
*Equation 
4 
2946,3,-1 
2960,3, 1 
62,3,-1 
3,3, 1 
*Equation 
4 
2962,3,-1 
2976,3, 1 
62,3,-1 
3,3, 1 
*Equation 
4 
2978,3,-1 
2992,3, 1 
62,3,-1 
3,3, 1 
*Equation 
4 
2994,3,-1 
3008,3, 1 
62,3,-1 
3,3, 1 
*Equation 
4 
3010,3,-1 
3024,3, 1 
62,3,-1 
3,3, 1 
*Equation 
4 
3026,3,-1 
3040,3, 1 
62,3,-1 
3,3, 1 
*Equation 
4 
3042,3,-1 
3056,3, 1 
62,3,-1 
3,3, 1 
*Equation 
4 
3076,3,-1 
3104,3, 1 
62,3,-1 
3,3, 1 
*Equation 
4 
3106,3,-1 
3120,3, 1 
62,3,-1 
3,3, 1 
*Equation 
4 
3122,3,-1 
3136,3, 1 
62,3,-1 
3,3, 1 
*Equation 
4 
3138,3,-1 
3152,3, 1 
62,3,-1 
3,3, 1 
*Equation 
4 
3154,3,-1 
3168,3, 1 
62,3,-1 
3,3, 1 
*Equation 
4 
3170,3,-1 
3184,3, 1 
62,3,-1 
3,3, 1 
*Equation 
4 
3186,3,-1 
3200,3, 1 
62,3,-1 
3,3, 1 
*Equation 
4 
3202,3,-1 
3216,3, 1 
62,3,-1 
3,3, 1 
*Equation 
4 
3218,3,-1 
3232,3, 1 
62,3,-1 
3,3, 1 
*Equation 
4 
3234,3,-1 
3248,3, 1 
62,3,-1 
3,3, 1 
*Equation 
4 
3250,3,-1 
3264,3, 1 
62,3,-1 
3,3, 1 
*Equation 
4 
3266,3,-1 
3280,3, 1 
62,3,-1 
3,3, 1 
*Equation 
4 
3282,3,-1 
3296,3, 1 
62,3,-1 
3,3, 1 
*Equation 
4 
3298,3,-1 
3312,3, 1 
62,3,-1 
3,3, 1 
*Equation 
4 
3332,3,-1 
3360,3, 1 
62,3,-1 
3,3, 1 
*Equation 
4 
3362,3,-1 
3376,3, 1 
62,3,-1 
3,3, 1 
*Equation 
4 
3378,3,-1 
3392,3, 1 
62,3,-1 
3,3, 1 
*Equation 
4 
3394,3,-1 
3408,3, 1 
62,3,-1 
3,3, 1 
*Equation 
4 
3410,3,-1 
3424,3, 1 
62,3,-1 
3,3, 1 
*Equation 
4 
3426,3,-1 
3440,3, 1 
62,3,-1 
3,3, 1 
*Equation 
4 
3442,3,-1 
3456,3, 1 
62,3,-1 
3,3, 1 
*Equation 
4 
3458,3,-1 
3472,3, 1 
62,3,-1 
3,3, 1 
*Equation 
4 
3474,3,-1 
3488,3, 1 
62,3,-1 
3,3, 1 
*Equation 
4 
3490,3,-1 
3504,3, 1 
62,3,-1 
3,3, 1 
*Equation 
4 
3506,3,-1 
3520,3, 1 
62,3,-1 
3,3, 1 
*Equation 
4 
3522,3,-1 
3536,3, 1 
62,3,-1 
3,3, 1 
*Equation 
4 
3538,3,-1 
3552,3, 1 
62,3,-1 
3,3, 1 
*Equation 
4 
3554,3,-1 
3568,3, 1 
62,3,-1 
3,3, 1 
*Equation 
4 
3588,3,-1 
3616,3, 1 
62,3,-1 
3,3, 1 
*Equation 
4 
3618,3,-1 
3632,3, 1 
62,3,-1 
3,3, 1 
*Equation 
4 
3634,3,-1 
3648,3, 1 
62,3,-1 
3,3, 1 
*Equation 
4 
3650,3,-1 
3664,3, 1 
62,3,-1 
3,3, 1 
*Equation 
4 
3666,3,-1 
3680,3, 1 
62,3,-1 
3,3, 1 
*Equation 
4 
3682,3,-1 
3696,3, 1 
62,3,-1 
3,3, 1 
*Equation 
4 
3698,3,-1 
3712,3, 1 
62,3,-1 
3,3, 1 
*Equation 
4 
3714,3,-1 
3728,3, 1 
62,3,-1 
3,3, 1 
*Equation 
4 
3730,3,-1 
3744,3, 1 
62,3,-1 
3,3, 1 
*Equation 
4 
3746,3,-1 
3760,3, 1 
62,3,-1 
3,3, 1 
*Equation 
4 
3762,3,-1 
3776,3, 1 
62,3,-1 
3,3, 1 
*Equation 
4 
3778,3,-1 
3792,3, 1 
62,3,-1 
3,3, 1 
*Equation 
4 
3794,3,-1 
3808,3, 1 
62,3,-1 
3,3, 1 
*Equation 
4 
3810,3,-1 
3824,3, 1 
62,3,-1 
3,3, 1 
**** ======================================================== 
**** Edges
**** 
**** X-DIR 
*Equation 
4 
4081,1, 1 
484,1,-1 
3871,1,-1 
62,1, 1 
*Equation 
4 
4083,1, 1 
486,1,-1 
3871,1,-1 
62,1, 1 
*Equation 
4 
4084,1, 1 
488,1,-1 
3871,1,-1 
62,1, 1 
*Equation 
4 
4085,1, 1 
490,1,-1 
3871,1,-1 
62,1, 1 
*Equation 
4 
4086,1, 1 
492,1,-1 
3871,1,-1 
62,1, 1 
*Equation 
4 
4087,1, 1 
494,1,-1 
3871,1,-1 
62,1, 1 
*Equation 
4 
4088,1, 1 
496,1,-1 
3871,1,-1 
62,1, 1 
*Equation 
4 
4089,1, 1 
498,1,-1 
3871,1,-1 
62,1, 1 
*Equation 
4 
4090,1, 1 
500,1,-1 
3871,1,-1 
62,1, 1 
*Equation 
4 
4091,1, 1 
502,1,-1 
3871,1,-1 
62,1, 1 
*Equation 
4 
4092,1, 1 
504,1,-1 
3871,1,-1 
62,1, 1 
*Equation 
4 
4093,1, 1 
506,1,-1 
3871,1,-1 
62,1, 1 
*Equation 
4 
4094,1, 1 
508,1,-1 
3871,1,-1 
62,1, 1 
*Equation 
4 
4095,1, 1 
510,1,-1 
3871,1,-1 
62,1, 1 
**** Y-DIR 
*Equation 
4 
4081,2, 1 
484,2,-1 
3871,2,-1 
62,2, 1 
*Equation 
4 
4083,2, 1 
486,2,-1 
3871,2,-1 
62,2, 1 
*Equation 
4 
4084,2, 1 
488,2,-1 
3871,2,-1 
62,2, 1 
*Equation 
4 
4085,2, 1 
490,2,-1 
3871,2,-1 
62,2, 1 
*Equation 
4 
4086,2, 1 
492,2,-1 
3871,2,-1 
62,2, 1 
*Equation 
4 
4087,2, 1 
494,2,-1 
3871,2,-1 
62,2, 1 
*Equation 
4 
4088,2, 1 
496,2,-1 
3871,2,-1 
62,2, 1 
*Equation 
4 
4089,2, 1 
498,2,-1 
3871,2,-1 
62,2, 1 
*Equation 
4 
4090,2, 1 
500,2,-1 
3871,2,-1 
62,2, 1 
*Equation 
4 
4091,2, 1 
502,2,-1 
3871,2,-1 
62,2, 1 
*Equation 
4 
4092,2, 1 
504,2,-1 
3871,2,-1 
62,2, 1 
*Equation 
4 
4093,2, 1 
506,2,-1 
3871,2,-1 
62,2, 1 
*Equation 
4 
4094,2, 1 
508,2,-1 
3871,2,-1 
62,2, 1 
*Equation 
4 
4095,2, 1 
510,2,-1 
3871,2,-1 
62,2, 1 
**** Z-DIR 
*Equation 
4 
4081,3, 1 
484,3,-1 
3871,3,-1 
62,3, 1 
*Equation 
4 
4083,3, 1 
486,3,-1 
3871,3,-1 
62,3, 1 
*Equation 
4 
4084,3, 1 
488,3,-1 
3871,3,-1 
62,3, 1 
*Equation 
4 
4085,3, 1 
490,3,-1 
3871,3,-1 
62,3, 1 
*Equation 
4 
4086,3, 1 
492,3,-1 
3871,3,-1 
62,3, 1 
*Equation 
4 
4087,3, 1 
494,3,-1 
3871,3,-1 
62,3, 1 
*Equation 
4 
4088,3, 1 
496,3,-1 
3871,3,-1 
62,3, 1 
*Equation 
4 
4089,3, 1 
498,3,-1 
3871,3,-1 
62,3, 1 
*Equation 
4 
4090,3, 1 
500,3,-1 
3871,3,-1 
62,3, 1 
*Equation 
4 
4091,3, 1 
502,3,-1 
3871,3,-1 
62,3, 1 
*Equation 
4 
4092,3, 1 
504,3,-1 
3871,3,-1 
62,3, 1 
*Equation 
4 
4093,3, 1 
506,3,-1 
3871,3,-1 
62,3, 1 
*Equation 
4 
4094,3, 1 
508,3,-1 
3871,3,-1 
62,3, 1 
*Equation 
4 
4095,3, 1 
510,3,-1 
3871,3,-1 
62,3, 1 
**** X-DIR 
*Equation 
4 
3841,1, 1 
4,1,-1 
3871,1,-1 
62,1, 1 
*Equation 
4 
3845,1, 1 
10,1,-1 
3871,1,-1 
62,1, 1 
*Equation 
4 
3847,1, 1 
14,1,-1 
3871,1,-1 
62,1, 1 
*Equation 
4 
3849,1, 1 
18,1,-1 
3871,1,-1 
62,1, 1 
*Equation 
4 
3851,1, 1 
22,1,-1 
3871,1,-1 
62,1, 1 
*Equation 
4 
3853,1, 1 
26,1,-1 
3871,1,-1 
62,1, 1 
*Equation 
4 
3855,1, 1 
30,1,-1 
3871,1,-1 
62,1, 1 
*Equation 
4 
3857,1, 1 
34,1,-1 
3871,1,-1 
62,1, 1 
*Equation 
4 
3859,1, 1 
38,1,-1 
3871,1,-1 
62,1, 1 
*Equation 
4 
3861,1, 1 
42,1,-1 
3871,1,-1 
62,1, 1 
*Equation 
4 
3863,1, 1 
46,1,-1 
3871,1,-1 
62,1, 1 
*Equation 
4 
3865,1, 1 
50,1,-1 
3871,1,-1 
62,1, 1 
*Equation 
4 
3867,1, 1 
54,1,-1 
3871,1,-1 
62,1, 1 
*Equation 
4 
3869,1, 1 
58,1,-1 
3871,1,-1 
62,1, 1 
**** Y-DIR 
*Equation 
4 
3841,2, 1 
4,2,-1 
3871,2,-1 
62,2, 1 
*Equation 
4 
3845,2, 1 
10,2,-1 
3871,2,-1 
62,2, 1 
*Equation 
4 
3847,2, 1 
14,2,-1 
3871,2,-1 
62,2, 1 
*Equation 
4 
3849,2, 1 
18,2,-1 
3871,2,-1 
62,2, 1 
*Equation 
4 
3851,2, 1 
22,2,-1 
3871,2,-1 
62,2, 1 
*Equation 
4 
3853,2, 1 
26,2,-1 
3871,2,-1 
62,2, 1 
*Equation 
4 
3855,2, 1 
30,2,-1 
3871,2,-1 
62,2, 1 
*Equation 
4 
3857,2, 1 
34,2,-1 
3871,2,-1 
62,2, 1 
*Equation 
4 
3859,2, 1 
38,2,-1 
3871,2,-1 
62,2, 1 
*Equation 
4 
3861,2, 1 
42,2,-1 
3871,2,-1 
62,2, 1 
*Equation 
4 
3863,2, 1 
46,2,-1 
3871,2,-1 
62,2, 1 
*Equation 
4 
3865,2, 1 
50,2,-1 
3871,2,-1 
62,2, 1 
*Equation 
4 
3867,2, 1 
54,2,-1 
3871,2,-1 
62,2, 1 
*Equation 
4 
3869,2, 1 
58,2,-1 
3871,2,-1 
62,2, 1 
**** Z-DIR 
*Equation 
4 
3841,3, 1 
4,3,-1 
3871,3,-1 
62,3, 1 
*Equation 
4 
3845,3, 1 
10,3,-1 
3871,3,-1 
62,3, 1 
*Equation 
4 
3847,3, 1 
14,3,-1 
3871,3,-1 
62,3, 1 
*Equation 
4 
3849,3, 1 
18,3,-1 
3871,3,-1 
62,3, 1 
*Equation 
4 
3851,3, 1 
22,3,-1 
3871,3,-1 
62,3, 1 
*Equation 
4 
3853,3, 1 
26,3,-1 
3871,3,-1 
62,3, 1 
*Equation 
4 
3855,3, 1 
30,3,-1 
3871,3,-1 
62,3, 1 
*Equation 
4 
3857,3, 1 
34,3,-1 
3871,3,-1 
62,3, 1 
*Equation 
4 
3859,3, 1 
38,3,-1 
3871,3,-1 
62,3, 1 
*Equation 
4 
3861,3, 1 
42,3,-1 
3871,3,-1 
62,3, 1 
*Equation 
4 
3863,3, 1 
46,3,-1 
3871,3,-1 
62,3, 1 
*Equation 
4 
3865,3, 1 
50,3,-1 
3871,3,-1 
62,3, 1 
*Equation 
4 
3867,3, 1 
54,3,-1 
3871,3,-1 
62,3, 1 
*Equation 
4 
3869,3, 1 
58,3,-1 
3871,3,-1 
62,3, 1 
**** X-DIR 
*Equation 
4 
484,1, 1 
4,1,-1 
512,1,-1 
62,1, 1 
*Equation 
4 
486,1, 1 
10,1,-1 
512,1,-1 
62,1, 1 
*Equation 
4 
488,1, 1 
14,1,-1 
512,1,-1 
62,1, 1 
*Equation 
4 
490,1, 1 
18,1,-1 
512,1,-1 
62,1, 1 
*Equation 
4 
492,1, 1 
22,1,-1 
512,1,-1 
62,1, 1 
*Equation 
4 
494,1, 1 
26,1,-1 
512,1,-1 
62,1, 1 
*Equation 
4 
496,1, 1 
30,1,-1 
512,1,-1 
62,1, 1 
*Equation 
4 
498,1, 1 
34,1,-1 
512,1,-1 
62,1, 1 
*Equation 
4 
500,1, 1 
38,1,-1 
512,1,-1 
62,1, 1 
*Equation 
4 
502,1, 1 
42,1,-1 
512,1,-1 
62,1, 1 
*Equation 
4 
504,1, 1 
46,1,-1 
512,1,-1 
62,1, 1 
*Equation 
4 
506,1, 1 
50,1,-1 
512,1,-1 
62,1, 1 
*Equation 
4 
508,1, 1 
54,1,-1 
512,1,-1 
62,1, 1 
*Equation 
4 
510,1, 1 
58,1,-1 
512,1,-1 
62,1, 1 
**** Y-DIR 
*Equation 
4 
484,2, 1 
4,2,-1 
512,2,-1 
62,2, 1 
*Equation 
4 
486,2, 1 
10,2,-1 
512,2,-1 
62,2, 1 
*Equation 
4 
488,2, 1 
14,2,-1 
512,2,-1 
62,2, 1 
*Equation 
4 
490,2, 1 
18,2,-1 
512,2,-1 
62,2, 1 
*Equation 
4 
492,2, 1 
22,2,-1 
512,2,-1 
62,2, 1 
*Equation 
4 
494,2, 1 
26,2,-1 
512,2,-1 
62,2, 1 
*Equation 
4 
496,2, 1 
30,2,-1 
512,2,-1 
62,2, 1 
*Equation 
4 
498,2, 1 
34,2,-1 
512,2,-1 
62,2, 1 
*Equation 
4 
500,2, 1 
38,2,-1 
512,2,-1 
62,2, 1 
*Equation 
4 
502,2, 1 
42,2,-1 
512,2,-1 
62,2, 1 
*Equation 
4 
504,2, 1 
46,2,-1 
512,2,-1 
62,2, 1 
*Equation 
4 
506,2, 1 
50,2,-1 
512,2,-1 
62,2, 1 
*Equation 
4 
508,2, 1 
54,2,-1 
512,2,-1 
62,2, 1 
*Equation 
4 
510,2, 1 
58,2,-1 
512,2,-1 
62,2, 1 
**** Z-DIR 
*Equation 
4 
484,3, 1 
4,3,-1 
512,3,-1 
62,3, 1 
*Equation 
4 
486,3, 1 
10,3,-1 
512,3,-1 
62,3, 1 
*Equation 
4 
488,3, 1 
14,3,-1 
512,3,-1 
62,3, 1 
*Equation 
4 
490,3, 1 
18,3,-1 
512,3,-1 
62,3, 1 
*Equation 
4 
492,3, 1 
22,3,-1 
512,3,-1 
62,3, 1 
*Equation 
4 
494,3, 1 
26,3,-1 
512,3,-1 
62,3, 1 
*Equation 
4 
496,3, 1 
30,3,-1 
512,3,-1 
62,3, 1 
*Equation 
4 
498,3, 1 
34,3,-1 
512,3,-1 
62,3, 1 
*Equation 
4 
500,3, 1 
38,3,-1 
512,3,-1 
62,3, 1 
*Equation 
4 
502,3, 1 
42,3,-1 
512,3,-1 
62,3, 1 
*Equation 
4 
504,3, 1 
46,3,-1 
512,3,-1 
62,3, 1 
*Equation 
4 
506,3, 1 
50,3,-1 
512,3,-1 
62,3, 1 
*Equation 
4 
508,3, 1 
54,3,-1 
512,3,-1 
62,3, 1 
*Equation 
4 
510,3, 1 
58,3,-1 
512,3,-1 
62,3, 1 
**** X-DIR 
*Equation 
4 
482,1, 1 
511,1,-1 
3,1,-1 
62,1, 1 
*Equation 
4 
754,1, 1 
768,1,-1 
3,1,-1 
62,1, 1 
*Equation 
4 
1010,1, 1 
1024,1,-1 
3,1,-1 
62,1, 1 
*Equation 
4 
1266,1, 1 
1280,1,-1 
3,1,-1 
62,1, 1 
*Equation 
4 
1522,1, 1 
1536,1,-1 
3,1,-1 
62,1, 1 
*Equation 
4 
1778,1, 1 
1792,1,-1 
3,1,-1 
62,1, 1 
*Equation 
4 
2034,1, 1 
2048,1,-1 
3,1,-1 
62,1, 1 
*Equation 
4 
2290,1, 1 
2304,1,-1 
3,1,-1 
62,1, 1 
*Equation 
4 
2546,1, 1 
2560,1,-1 
3,1,-1 
62,1, 1 
*Equation 
4 
2802,1, 1 
2816,1,-1 
3,1,-1 
62,1, 1 
*Equation 
4 
3058,1, 1 
3072,1,-1 
3,1,-1 
62,1, 1 
*Equation 
4 
3314,1, 1 
3328,1,-1 
3,1,-1 
62,1, 1 
*Equation 
4 
3570,1, 1 
3584,1,-1 
3,1,-1 
62,1, 1 
*Equation 
4 
3826,1, 1 
3840,1,-1 
3,1,-1 
62,1, 1 
**** Y-DIR 
*Equation 
4 
482,2, 1 
511,2,-1 
3,2,-1 
62,2, 1 
*Equation 
4 
754,2, 1 
768,2,-1 
3,2,-1 
62,2, 1 
*Equation 
4 
1010,2, 1 
1024,2,-1 
3,2,-1 
62,2, 1 
*Equation 
4 
1266,2, 1 
1280,2,-1 
3,2,-1 
62,2, 1 
*Equation 
4 
1522,2, 1 
1536,2,-1 
3,2,-1 
62,2, 1 
*Equation 
4 
1778,2, 1 
1792,2,-1 
3,2,-1 
62,2, 1 
*Equation 
4 
2034,2, 1 
2048,2,-1 
3,2,-1 
62,2, 1 
*Equation 
4 
2290,2, 1 
2304,2,-1 
3,2,-1 
62,2, 1 
*Equation 
4 
2546,2, 1 
2560,2,-1 
3,2,-1 
62,2, 1 
*Equation 
4 
2802,2, 1 
2816,2,-1 
3,2,-1 
62,2, 1 
*Equation 
4 
3058,2, 1 
3072,2,-1 
3,2,-1 
62,2, 1 
*Equation 
4 
3314,2, 1 
3328,2,-1 
3,2,-1 
62,2, 1 
*Equation 
4 
3570,2, 1 
3584,2,-1 
3,2,-1 
62,2, 1 
*Equation 
4 
3826,2, 1 
3840,2,-1 
3,2,-1 
62,2, 1 
**** Z-DIR 
*Equation 
4 
482,3, 1 
511,3,-1 
3,3,-1 
62,3, 1 
*Equation 
4 
754,3, 1 
768,3,-1 
3,3,-1 
62,3, 1 
*Equation 
4 
1010,3, 1 
1024,3,-1 
3,3,-1 
62,3, 1 
*Equation 
4 
1266,3, 1 
1280,3,-1 
3,3,-1 
62,3, 1 
*Equation 
4 
1522,3, 1 
1536,3,-1 
3,3,-1 
62,3, 1 
*Equation 
4 
1778,3, 1 
1792,3,-1 
3,3,-1 
62,3, 1 
*Equation 
4 
2034,3, 1 
2048,3,-1 
3,3,-1 
62,3, 1 
*Equation 
4 
2290,3, 1 
2304,3,-1 
3,3,-1 
62,3, 1 
*Equation 
4 
2546,3, 1 
2560,3,-1 
3,3,-1 
62,3, 1 
*Equation 
4 
2802,3, 1 
2816,3,-1 
3,3,-1 
62,3, 1 
*Equation 
4 
3058,3, 1 
3072,3,-1 
3,3,-1 
62,3, 1 
*Equation 
4 
3314,3, 1 
3328,3,-1 
3,3,-1 
62,3, 1 
*Equation 
4 
3570,3, 1 
3584,3,-1 
3,3,-1 
62,3, 1 
*Equation 
4 
3826,3, 1 
3840,3,-1 
3,3,-1 
62,3, 1 
**** X-DIR 
*Equation 
4 
2,1, 1 
61,1,-1 
3,1,-1 
62,1, 1 
*Equation 
4 
514,1, 1 
543,1,-1 
3,1,-1 
62,1, 1 
*Equation 
4 
770,1, 1 
799,1,-1 
3,1,-1 
62,1, 1 
*Equation 
4 
1026,1, 1 
1055,1,-1 
3,1,-1 
62,1, 1 
*Equation 
4 
1282,1, 1 
1311,1,-1 
3,1,-1 
62,1, 1 
*Equation 
4 
1538,1, 1 
1567,1,-1 
3,1,-1 
62,1, 1 
*Equation 
4 
1794,1, 1 
1823,1,-1 
3,1,-1 
62,1, 1 
*Equation 
4 
2050,1, 1 
2079,1,-1 
3,1,-1 
62,1, 1 
*Equation 
4 
2306,1, 1 
2335,1,-1 
3,1,-1 
62,1, 1 
*Equation 
4 
2562,1, 1 
2591,1,-1 
3,1,-1 
62,1, 1 
*Equation 
4 
2818,1, 1 
2847,1,-1 
3,1,-1 
62,1, 1 
*Equation 
4 
3074,1, 1 
3103,1,-1 
3,1,-1 
62,1, 1 
*Equation 
4 
3330,1, 1 
3359,1,-1 
3,1,-1 
62,1, 1 
*Equation 
4 
3586,1, 1 
3615,1,-1 
3,1,-1 
62,1, 1 
**** Y-DIR 
*Equation 
4 
2,2, 1 
61,2,-1 
3,2,-1 
62,2, 1 
*Equation 
4 
514,2, 1 
543,2,-1 
3,2,-1 
62,2, 1 
*Equation 
4 
770,2, 1 
799,2,-1 
3,2,-1 
62,2, 1 
*Equation 
4 
1026,2, 1 
1055,2,-1 
3,2,-1 
62,2, 1 
*Equation 
4 
1282,2, 1 
1311,2,-1 
3,2,-1 
62,2, 1 
*Equation 
4 
1538,2, 1 
1567,2,-1 
3,2,-1 
62,2, 1 
*Equation 
4 
1794,2, 1 
1823,2,-1 
3,2,-1 
62,2, 1 
*Equation 
4 
2050,2, 1 
2079,2,-1 
3,2,-1 
62,2, 1 
*Equation 
4 
2306,2, 1 
2335,2,-1 
3,2,-1 
62,2, 1 
*Equation 
4 
2562,2, 1 
2591,2,-1 
3,2,-1 
62,2, 1 
*Equation 
4 
2818,2, 1 
2847,2,-1 
3,2,-1 
62,2, 1 
*Equation 
4 
3074,2, 1 
3103,2,-1 
3,2,-1 
62,2, 1 
*Equation 
4 
3330,2, 1 
3359,2,-1 
3,2,-1 
62,2, 1 
*Equation 
4 
3586,2, 1 
3615,2,-1 
3,2,-1 
62,2, 1 
**** Z-DIR 
*Equation 
4 
2,3, 1 
61,3,-1 
3,3,-1 
62,3, 1 
*Equation 
4 
514,3, 1 
543,3,-1 
3,3,-1 
62,3, 1 
*Equation 
4 
770,3, 1 
799,3,-1 
3,3,-1 
62,3, 1 
*Equation 
4 
1026,3, 1 
1055,3,-1 
3,3,-1 
62,3, 1 
*Equation 
4 
1282,3, 1 
1311,3,-1 
3,3,-1 
62,3, 1 
*Equation 
4 
1538,3, 1 
1567,3,-1 
3,3,-1 
62,3, 1 
*Equation 
4 
1794,3, 1 
1823,3,-1 
3,3,-1 
62,3, 1 
*Equation 
4 
2050,3, 1 
2079,3,-1 
3,3,-1 
62,3, 1 
*Equation 
4 
2306,3, 1 
2335,3,-1 
3,3,-1 
62,3, 1 
*Equation 
4 
2562,3, 1 
2591,3,-1 
3,3,-1 
62,3, 1 
*Equation 
4 
2818,3, 1 
2847,3,-1 
3,3,-1 
62,3, 1 
*Equation 
4 
3074,3, 1 
3103,3,-1 
3,3,-1 
62,3, 1 
*Equation 
4 
3330,3, 1 
3359,3,-1 
3,3,-1 
62,3, 1 
*Equation 
4 
3586,3, 1 
3615,3,-1 
3,3,-1 
62,3, 1 
**** X-DIR 
*Equation 
4 
511,1, 1 
61,1,-1 
512,1,-1 
62,1, 1 
*Equation 
4 
768,1, 1 
543,1,-1 
512,1,-1 
62,1, 1 
*Equation 
4 
1024,1, 1 
799,1,-1 
512,1,-1 
62,1, 1 
*Equation 
4 
1280,1, 1 
1055,1,-1 
512,1,-1 
62,1, 1 
*Equation 
4 
1536,1, 1 
1311,1,-1 
512,1,-1 
62,1, 1 
*Equation 
4 
1792,1, 1 
1567,1,-1 
512,1,-1 
62,1, 1 
*Equation 
4 
2048,1, 1 
1823,1,-1 
512,1,-1 
62,1, 1 
*Equation 
4 
2304,1, 1 
2079,1,-1 
512,1,-1 
62,1, 1 
*Equation 
4 
2560,1, 1 
2335,1,-1 
512,1,-1 
62,1, 1 
*Equation 
4 
2816,1, 1 
2591,1,-1 
512,1,-1 
62,1, 1 
*Equation 
4 
3072,1, 1 
2847,1,-1 
512,1,-1 
62,1, 1 
*Equation 
4 
3328,1, 1 
3103,1,-1 
512,1,-1 
62,1, 1 
*Equation 
4 
3584,1, 1 
3359,1,-1 
512,1,-1 
62,1, 1 
*Equation 
4 
3840,1, 1 
3615,1,-1 
512,1,-1 
62,1, 1 
**** Y-DIR 
*Equation 
4 
511,2, 1 
61,2,-1 
512,2,-1 
62,2, 1 
*Equation 
4 
768,2, 1 
543,2,-1 
512,2,-1 
62,2, 1 
*Equation 
4 
1024,2, 1 
799,2,-1 
512,2,-1 
62,2, 1 
*Equation 
4 
1280,2, 1 
1055,2,-1 
512,2,-1 
62,2, 1 
*Equation 
4 
1536,2, 1 
1311,2,-1 
512,2,-1 
62,2, 1 
*Equation 
4 
1792,2, 1 
1567,2,-1 
512,2,-1 
62,2, 1 
*Equation 
4 
2048,2, 1 
1823,2,-1 
512,2,-1 
62,2, 1 
*Equation 
4 
2304,2, 1 
2079,2,-1 
512,2,-1 
62,2, 1 
*Equation 
4 
2560,2, 1 
2335,2,-1 
512,2,-1 
62,2, 1 
*Equation 
4 
2816,2, 1 
2591,2,-1 
512,2,-1 
62,2, 1 
*Equation 
4 
3072,2, 1 
2847,2,-1 
512,2,-1 
62,2, 1 
*Equation 
4 
3328,2, 1 
3103,2,-1 
512,2,-1 
62,2, 1 
*Equation 
4 
3584,2, 1 
3359,2,-1 
512,2,-1 
62,2, 1 
*Equation 
4 
3840,2, 1 
3615,2,-1 
512,2,-1 
62,2, 1 
**** Z-DIR 
*Equation 
4 
511,3, 1 
61,3,-1 
512,3,-1 
62,3, 1 
*Equation 
4 
768,3, 1 
543,3,-1 
512,3,-1 
62,3, 1 
*Equation 
4 
1024,3, 1 
799,3,-1 
512,3,-1 
62,3, 1 
*Equation 
4 
1280,3, 1 
1055,3,-1 
512,3,-1 
62,3, 1 
*Equation 
4 
1536,3, 1 
1311,3,-1 
512,3,-1 
62,3, 1 
*Equation 
4 
1792,3, 1 
1567,3,-1 
512,3,-1 
62,3, 1 
*Equation 
4 
2048,3, 1 
1823,3,-1 
512,3,-1 
62,3, 1 
*Equation 
4 
2304,3, 1 
2079,3,-1 
512,3,-1 
62,3, 1 
*Equation 
4 
2560,3, 1 
2335,3,-1 
512,3,-1 
62,3, 1 
*Equation 
4 
2816,3, 1 
2591,3,-1 
512,3,-1 
62,3, 1 
*Equation 
4 
3072,3, 1 
2847,3,-1 
512,3,-1 
62,3, 1 
*Equation 
4 
3328,3, 1 
3103,3,-1 
512,3,-1 
62,3, 1 
*Equation 
4 
3584,3, 1 
3359,3,-1 
512,3,-1 
62,3, 1 
*Equation 
4 
3840,3, 1 
3615,3,-1 
512,3,-1 
62,3, 1 
**** X-DIR 
*Equation 
4 
3844,1, 1 
7,1,-1 
3871,1,-1 
62,1, 1 
*Equation 
4 
3874,1, 1 
67,1,-1 
3871,1,-1 
62,1, 1 
*Equation 
4 
3890,1, 1 
99,1,-1 
3871,1,-1 
62,1, 1 
*Equation 
4 
3906,1, 1 
131,1,-1 
3871,1,-1 
62,1, 1 
*Equation 
4 
3922,1, 1 
163,1,-1 
3871,1,-1 
62,1, 1 
*Equation 
4 
3938,1, 1 
195,1,-1 
3871,1,-1 
62,1, 1 
*Equation 
4 
3954,1, 1 
227,1,-1 
3871,1,-1 
62,1, 1 
*Equation 
4 
3970,1, 1 
259,1,-1 
3871,1,-1 
62,1, 1 
*Equation 
4 
3986,1, 1 
291,1,-1 
3871,1,-1 
62,1, 1 
*Equation 
4 
4002,1, 1 
323,1,-1 
3871,1,-1 
62,1, 1 
*Equation 
4 
4018,1, 1 
355,1,-1 
3871,1,-1 
62,1, 1 
*Equation 
4 
4034,1, 1 
387,1,-1 
3871,1,-1 
62,1, 1 
*Equation 
4 
4050,1, 1 
419,1,-1 
3871,1,-1 
62,1, 1 
*Equation 
4 
4066,1, 1 
451,1,-1 
3871,1,-1 
62,1, 1 
**** Y-DIR 
*Equation 
4 
3844,2, 1 
7,2,-1 
3871,2,-1 
62,2, 1 
*Equation 
4 
3874,2, 1 
67,2,-1 
3871,2,-1 
62,2, 1 
*Equation 
4 
3890,2, 1 
99,2,-1 
3871,2,-1 
62,2, 1 
*Equation 
4 
3906,2, 1 
131,2,-1 
3871,2,-1 
62,2, 1 
*Equation 
4 
3922,2, 1 
163,2,-1 
3871,2,-1 
62,2, 1 
*Equation 
4 
3938,2, 1 
195,2,-1 
3871,2,-1 
62,2, 1 
*Equation 
4 
3954,2, 1 
227,2,-1 
3871,2,-1 
62,2, 1 
*Equation 
4 
3970,2, 1 
259,2,-1 
3871,2,-1 
62,2, 1 
*Equation 
4 
3986,2, 1 
291,2,-1 
3871,2,-1 
62,2, 1 
*Equation 
4 
4002,2, 1 
323,2,-1 
3871,2,-1 
62,2, 1 
*Equation 
4 
4018,2, 1 
355,2,-1 
3871,2,-1 
62,2, 1 
*Equation 
4 
4034,2, 1 
387,2,-1 
3871,2,-1 
62,2, 1 
*Equation 
4 
4050,2, 1 
419,2,-1 
3871,2,-1 
62,2, 1 
*Equation 
4 
4066,2, 1 
451,2,-1 
3871,2,-1 
62,2, 1 
**** Z-DIR 
*Equation 
4 
3844,3, 1 
7,3,-1 
3871,3,-1 
62,3, 1 
*Equation 
4 
3874,3, 1 
67,3,-1 
3871,3,-1 
62,3, 1 
*Equation 
4 
3890,3, 1 
99,3,-1 
3871,3,-1 
62,3, 1 
*Equation 
4 
3906,3, 1 
131,3,-1 
3871,3,-1 
62,3, 1 
*Equation 
4 
3922,3, 1 
163,3,-1 
3871,3,-1 
62,3, 1 
*Equation 
4 
3938,3, 1 
195,3,-1 
3871,3,-1 
62,3, 1 
*Equation 
4 
3954,3, 1 
227,3,-1 
3871,3,-1 
62,3, 1 
*Equation 
4 
3970,3, 1 
259,3,-1 
3871,3,-1 
62,3, 1 
*Equation 
4 
3986,3, 1 
291,3,-1 
3871,3,-1 
62,3, 1 
*Equation 
4 
4002,3, 1 
323,3,-1 
3871,3,-1 
62,3, 1 
*Equation 
4 
4018,3, 1 
355,3,-1 
3871,3,-1 
62,3, 1 
*Equation 
4 
4034,3, 1 
387,3,-1 
3871,3,-1 
62,3, 1 
*Equation 
4 
4050,3, 1 
419,3,-1 
3871,3,-1 
62,3, 1 
*Equation 
4 
4066,3, 1 
451,3,-1 
3871,3,-1 
62,3, 1 
**** X-DIR 
*Equation 
4 
3872,1, 1 
64,1,-1 
3871,1,-1 
62,1, 1 
*Equation 
4 
3888,1, 1 
96,1,-1 
3871,1,-1 
62,1, 1 
*Equation 
4 
3904,1, 1 
128,1,-1 
3871,1,-1 
62,1, 1 
*Equation 
4 
3920,1, 1 
160,1,-1 
3871,1,-1 
62,1, 1 
*Equation 
4 
3936,1, 1 
192,1,-1 
3871,1,-1 
62,1, 1 
*Equation 
4 
3952,1, 1 
224,1,-1 
3871,1,-1 
62,1, 1 
*Equation 
4 
3968,1, 1 
256,1,-1 
3871,1,-1 
62,1, 1 
*Equation 
4 
3984,1, 1 
288,1,-1 
3871,1,-1 
62,1, 1 
*Equation 
4 
4000,1, 1 
320,1,-1 
3871,1,-1 
62,1, 1 
*Equation 
4 
4016,1, 1 
352,1,-1 
3871,1,-1 
62,1, 1 
*Equation 
4 
4032,1, 1 
384,1,-1 
3871,1,-1 
62,1, 1 
*Equation 
4 
4048,1, 1 
416,1,-1 
3871,1,-1 
62,1, 1 
*Equation 
4 
4064,1, 1 
448,1,-1 
3871,1,-1 
62,1, 1 
*Equation 
4 
4080,1, 1 
480,1,-1 
3871,1,-1 
62,1, 1 
**** Y-DIR 
*Equation 
4 
3872,2, 1 
64,2,-1 
3871,2,-1 
62,2, 1 
*Equation 
4 
3888,2, 1 
96,2,-1 
3871,2,-1 
62,2, 1 
*Equation 
4 
3904,2, 1 
128,2,-1 
3871,2,-1 
62,2, 1 
*Equation 
4 
3920,2, 1 
160,2,-1 
3871,2,-1 
62,2, 1 
*Equation 
4 
3936,2, 1 
192,2,-1 
3871,2,-1 
62,2, 1 
*Equation 
4 
3952,2, 1 
224,2,-1 
3871,2,-1 
62,2, 1 
*Equation 
4 
3968,2, 1 
256,2,-1 
3871,2,-1 
62,2, 1 
*Equation 
4 
3984,2, 1 
288,2,-1 
3871,2,-1 
62,2, 1 
*Equation 
4 
4000,2, 1 
320,2,-1 
3871,2,-1 
62,2, 1 
*Equation 
4 
4016,2, 1 
352,2,-1 
3871,2,-1 
62,2, 1 
*Equation 
4 
4032,2, 1 
384,2,-1 
3871,2,-1 
62,2, 1 
*Equation 
4 
4048,2, 1 
416,2,-1 
3871,2,-1 
62,2, 1 
*Equation 
4 
4064,2, 1 
448,2,-1 
3871,2,-1 
62,2, 1 
*Equation 
4 
4080,2, 1 
480,2,-1 
3871,2,-1 
62,2, 1 
**** Z-DIR 
*Equation 
4 
3872,3, 1 
64,3,-1 
3871,3,-1 
62,3, 1 
*Equation 
4 
3888,3, 1 
96,3,-1 
3871,3,-1 
62,3, 1 
*Equation 
4 
3904,3, 1 
128,3,-1 
3871,3,-1 
62,3, 1 
*Equation 
4 
3920,3, 1 
160,3,-1 
3871,3,-1 
62,3, 1 
*Equation 
4 
3936,3, 1 
192,3,-1 
3871,3,-1 
62,3, 1 
*Equation 
4 
3952,3, 1 
224,3,-1 
3871,3,-1 
62,3, 1 
*Equation 
4 
3968,3, 1 
256,3,-1 
3871,3,-1 
62,3, 1 
*Equation 
4 
3984,3, 1 
288,3,-1 
3871,3,-1 
62,3, 1 
*Equation 
4 
4000,3, 1 
320,3,-1 
3871,3,-1 
62,3, 1 
*Equation 
4 
4016,3, 1 
352,3,-1 
3871,3,-1 
62,3, 1 
*Equation 
4 
4032,3, 1 
384,3,-1 
3871,3,-1 
62,3, 1 
*Equation 
4 
4048,3, 1 
416,3,-1 
3871,3,-1 
62,3, 1 
*Equation 
4 
4064,3, 1 
448,3,-1 
3871,3,-1 
62,3, 1 
*Equation 
4 
4080,3, 1 
480,3,-1 
3871,3,-1 
62,3, 1 
**** X-DIR 
*Equation 
4 
7,1, 1 
64,1,-1 
3,1,-1 
62,1, 1 
*Equation 
4 
67,1, 1 
96,1,-1 
3,1,-1 
62,1, 1 
*Equation 
4 
99,1, 1 
128,1,-1 
3,1,-1 
62,1, 1 
*Equation 
4 
131,1, 1 
160,1,-1 
3,1,-1 
62,1, 1 
*Equation 
4 
163,1, 1 
192,1,-1 
3,1,-1 
62,1, 1 
*Equation 
4 
195,1, 1 
224,1,-1 
3,1,-1 
62,1, 1 
*Equation 
4 
227,1, 1 
256,1,-1 
3,1,-1 
62,1, 1 
*Equation 
4 
259,1, 1 
288,1,-1 
3,1,-1 
62,1, 1 
*Equation 
4 
291,1, 1 
320,1,-1 
3,1,-1 
62,1, 1 
*Equation 
4 
323,1, 1 
352,1,-1 
3,1,-1 
62,1, 1 
*Equation 
4 
355,1, 1 
384,1,-1 
3,1,-1 
62,1, 1 
*Equation 
4 
387,1, 1 
416,1,-1 
3,1,-1 
62,1, 1 
*Equation 
4 
419,1, 1 
448,1,-1 
3,1,-1 
62,1, 1 
*Equation 
4 
451,1, 1 
480,1,-1 
3,1,-1 
62,1, 1 
**** Y-DIR 
*Equation 
4 
7,2, 1 
64,2,-1 
3,2,-1 
62,2, 1 
*Equation 
4 
67,2, 1 
96,2,-1 
3,2,-1 
62,2, 1 
*Equation 
4 
99,2, 1 
128,2,-1 
3,2,-1 
62,2, 1 
*Equation 
4 
131,2, 1 
160,2,-1 
3,2,-1 
62,2, 1 
*Equation 
4 
163,2, 1 
192,2,-1 
3,2,-1 
62,2, 1 
*Equation 
4 
195,2, 1 
224,2,-1 
3,2,-1 
62,2, 1 
*Equation 
4 
227,2, 1 
256,2,-1 
3,2,-1 
62,2, 1 
*Equation 
4 
259,2, 1 
288,2,-1 
3,2,-1 
62,2, 1 
*Equation 
4 
291,2, 1 
320,2,-1 
3,2,-1 
62,2, 1 
*Equation 
4 
323,2, 1 
352,2,-1 
3,2,-1 
62,2, 1 
*Equation 
4 
355,2, 1 
384,2,-1 
3,2,-1 
62,2, 1 
*Equation 
4 
387,2, 1 
416,2,-1 
3,2,-1 
62,2, 1 
*Equation 
4 
419,2, 1 
448,2,-1 
3,2,-1 
62,2, 1 
*Equation 
4 
451,2, 1 
480,2,-1 
3,2,-1 
62,2, 1 
**** Z-DIR 
*Equation 
4 
7,3, 1 
64,3,-1 
3,3,-1 
62,3, 1 
*Equation 
4 
67,3, 1 
96,3,-1 
3,3,-1 
62,3, 1 
*Equation 
4 
99,3, 1 
128,3,-1 
3,3,-1 
62,3, 1 
*Equation 
4 
131,3, 1 
160,3,-1 
3,3,-1 
62,3, 1 
*Equation 
4 
163,3, 1 
192,3,-1 
3,3,-1 
62,3, 1 
*Equation 
4 
195,3, 1 
224,3,-1 
3,3,-1 
62,3, 1 
*Equation 
4 
227,3, 1 
256,3,-1 
3,3,-1 
62,3, 1 
*Equation 
4 
259,3, 1 
288,3,-1 
3,3,-1 
62,3, 1 
*Equation 
4 
291,3, 1 
320,3,-1 
3,3,-1 
62,3, 1 
*Equation 
4 
323,3, 1 
352,3,-1 
3,3,-1 
62,3, 1 
*Equation 
4 
355,3, 1 
384,3,-1 
3,3,-1 
62,3, 1 
*Equation 
4 
387,3, 1 
416,3,-1 
3,3,-1 
62,3, 1 
*Equation 
4 
419,3, 1 
448,3,-1 
3,3,-1 
62,3, 1 
*Equation 
4 
451,3, 1 
480,3,-1 
3,3,-1 
62,3, 1 
**** ======================================================== 
**** Corners 
**** X-DIR 
*Equation 
4 
4096,1, 1 
512,1,-1 
3871,1,-1 
62,1, 1 
**** y-DIR 
*Equation 
4 
4096,2, 1 
512,2,-1 
3871,2,-1 
62,2, 1 
**** z-DIR 
*Equation 
4 
4096,3, 1 
512,3,-1 
3871,3,-1 
62,3, 1 
**** X-DIR 
*Equation 
4 
483,1, 1 
512,1,-1 
3,1,-1 
62,1, 1 
**** y-DIR 
*Equation 
4 
483,2, 1 
512,2,-1 
3,2,-1 
62,2, 1 
**** z-DIR 
*Equation 
4 
483,3, 1 
512,3,-1 
3,3,-1 
62,3, 1 
**** X-DIR 
*Equation 
4 
4082,1, 1 
4096,1,-1 
3,1,-1 
62,1, 1 
**** y-DIR 
*Equation 
4 
4082,2, 1 
4096,2,-1 
3,2,-1 
62,2, 1 
**** z-DIR 
*Equation 
4 
4082,3, 1 
4096,3,-1 
3,3,-1 
62,3, 1 
**** X-DIR 
*Equation 
4 
3842,1, 1 
3871,1,-1 
3,1,-1 
62,1, 1 
**** y-DIR 
*Equation 
4 
3842,2, 1 
3871,2,-1 
3,2,-1 
62,2, 1 
**** z-DIR 
*Equation 
4 
3842,3, 1 
3871,3,-1 
3,3,-1 
62,3, 1 
*End Part
**
** ASSEMBLY
**
*Assembly, name=Assembly
**
*Instance, name=PART-1-1, part=PART-1
*End Instance
**
** DEFINE NODE SETS
** 1. VERTICES
*Nset, nset=V000, instance=PART-1-1
3
*Nset, nset=V001, instance=PART-1-1
62
*Nset, nset=V010, instance=PART-1-1
483
*Nset, nset=V100, instance=PART-1-1
3842
*Nset, nset=V011, instance=PART-1-1
512
*Nset, nset=V101, instance=PART-1-1
3871
*Nset, nset=V110, instance=PART-1-1
4082
*Nset, nset=V111, instance=PART-1-1
4096
*Nset, nset=Vertices, instance=PART-1-1
3, 3842, 483, 62, 512, 3871, 4082, 4096
*Nset, nset=VerticesPeriodic, instance=PART-1-1
62, 3871, 512, 3 
** 2. EDGES
*Nset, nset=Ex00, instance=PART-1-1
3, 2, 514, 770, 1026, 1282, 1538, 1794, 2050, 2306, 2562, 2818, 3074, 3330, 3586, 3842
*Nset, nset=Ex01, instance=PART-1-1
62, 61, 543, 799, 1055, 1311, 1567, 1823, 2079, 2335, 2591, 2847, 3103, 3359, 3615, 3871
*Nset, nset=Ex10, instance=PART-1-1
483, 482, 754, 1010, 1266, 1522, 1778, 2034, 2290, 2546, 2802, 3058, 3314, 3570, 3826, 4082
*Nset, nset=Ex11, instance=PART-1-1
512, 511, 768, 1024, 1280, 1536, 1792, 2048, 2304, 2560, 2816, 3072, 3328, 3584, 3840, 4096
*Nset, nset=E0y0, instance=PART-1-1
3, 7, 67, 99, 131, 163, 195, 227, 259, 291, 323, 355, 387, 419, 451, 483
*Nset, nset=E0y1, instance=PART-1-1
62, 64, 96, 128, 160, 192, 224, 256, 288, 320, 352, 384, 416, 448, 480, 512
*Nset, nset=E1y0, instance=PART-1-1
3842, 3844, 3874, 3890, 3906, 3922, 3938, 3954, 3970, 3986, 4002, 4018, 4034, 4050, 4066, 4082
*Nset, nset=E1y1, instance=PART-1-1
3871, 3872, 3888, 3904, 3920, 3936, 3952, 3968, 3984, 4000, 4016, 4032, 4048, 4064, 4080, 4096
*Nset, nset=E00z, instance=PART-1-1
3, 4, 10, 14, 18, 22, 26, 30, 34, 38, 42, 46, 50, 54, 58, 62
*Nset, nset=E01z, instance=PART-1-1
483, 484, 486, 488, 490, 492, 494, 496, 498, 500, 502, 504, 506, 508, 510, 512
*Nset, nset=E10z, instance=PART-1-1
3842, 3841, 3845, 3847, 3849, 3851, 3853, 3855, 3857, 3859, 3861, 3863, 3865, 3867, 3869, 3871
*Nset, nset=E11z, instance=PART-1-1
4082, 4081, 4083, 4084, 4085, 4086, 4087, 4088, 4089, 4090, 4091, 4092, 4093, 4094, 4095, 4096
** 3. FACES
*Nset, nset=Fxy0, instance=PART-1-1
2, 3, 6, 7, 66, 67, 98, 99, 130, 131, 162, 163, 194, 195, 226, 227
258, 259, 290, 291, 322, 323, 354, 355, 386, 387, 418, 419, 450, 451, 482, 483
514, 516, 546, 562, 578, 594, 610, 626, 642, 658, 674, 690, 706, 722, 738, 754
770, 772, 802, 818, 834, 850, 866, 882, 898, 914, 930, 946, 962, 978, 994, 1010
1026, 1028, 1058, 1074, 1090, 1106, 1122, 1138, 1154, 1170, 1186, 1202, 1218, 1234, 1250, 1266
1282, 1284, 1314, 1330, 1346, 1362, 1378, 1394, 1410, 1426, 1442, 1458, 1474, 1490, 1506, 1522
1538, 1540, 1570, 1586, 1602, 1618, 1634, 1650, 1666, 1682, 1698, 1714, 1730, 1746, 1762, 1778
1794, 1796, 1826, 1842, 1858, 1874, 1890, 1906, 1922, 1938, 1954, 1970, 1986, 2002, 2018, 2034
2050, 2052, 2082, 2098, 2114, 2130, 2146, 2162, 2178, 2194, 2210, 2226, 2242, 2258, 2274, 2290
2306, 2308, 2338, 2354, 2370, 2386, 2402, 2418, 2434, 2450, 2466, 2482, 2498, 2514, 2530, 2546
2562, 2564, 2594, 2610, 2626, 2642, 2658, 2674, 2690, 2706, 2722, 2738, 2754, 2770, 2786, 2802
2818, 2820, 2850, 2866, 2882, 2898, 2914, 2930, 2946, 2962, 2978, 2994, 3010, 3026, 3042, 3058
3074, 3076, 3106, 3122, 3138, 3154, 3170, 3186, 3202, 3218, 3234, 3250, 3266, 3282, 3298, 3314
3330, 3332, 3362, 3378, 3394, 3410, 3426, 3442, 3458, 3474, 3490, 3506, 3522, 3538, 3554, 3570
3586, 3588, 3618, 3634, 3650, 3666, 3682, 3698, 3714, 3730, 3746, 3762, 3778, 3794, 3810, 3826
3842, 3844, 3874, 3890, 3906, 3922, 3938, 3954, 3970, 3986, 4002, 4018, 4034, 4050, 4066, 4082
*Nset, nset=Fxy1, instance=PART-1-1
61, 62, 63, 64, 95, 96, 127, 128, 159, 160, 191, 192, 223, 224, 255, 256
287, 288, 319, 320, 351, 352, 383, 384, 415, 416, 447, 448, 479, 480, 511, 512
543, 544, 560, 576, 592, 608, 624, 640, 656, 672, 688, 704, 720, 736, 752, 768
799, 800, 816, 832, 848, 864, 880, 896, 912, 928, 944, 960, 976, 992, 1008, 1024
1055, 1056, 1072, 1088, 1104, 1120, 1136, 1152, 1168, 1184, 1200, 1216, 1232, 1248, 1264, 1280
1311, 1312, 1328, 1344, 1360, 1376, 1392, 1408, 1424, 1440, 1456, 1472, 1488, 1504, 1520, 1536
1567, 1568, 1584, 1600, 1616, 1632, 1648, 1664, 1680, 1696, 1712, 1728, 1744, 1760, 1776, 1792
1823, 1824, 1840, 1856, 1872, 1888, 1904, 1920, 1936, 1952, 1968, 1984, 2000, 2016, 2032, 2048
2079, 2080, 2096, 2112, 2128, 2144, 2160, 2176, 2192, 2208, 2224, 2240, 2256, 2272, 2288, 2304
2335, 2336, 2352, 2368, 2384, 2400, 2416, 2432, 2448, 2464, 2480, 2496, 2512, 2528, 2544, 2560
2591, 2592, 2608, 2624, 2640, 2656, 2672, 2688, 2704, 2720, 2736, 2752, 2768, 2784, 2800, 2816
2847, 2848, 2864, 2880, 2896, 2912, 2928, 2944, 2960, 2976, 2992, 3008, 3024, 3040, 3056, 3072
3103, 3104, 3120, 3136, 3152, 3168, 3184, 3200, 3216, 3232, 3248, 3264, 3280, 3296, 3312, 3328
3359, 3360, 3376, 3392, 3408, 3424, 3440, 3456, 3472, 3488, 3504, 3520, 3536, 3552, 3568, 3584
3615, 3616, 3632, 3648, 3664, 3680, 3696, 3712, 3728, 3744, 3760, 3776, 3792, 3808, 3824, 3840
3871, 3872, 3888, 3904, 3920, 3936, 3952, 3968, 3984, 4000, 4016, 4032, 4048, 4064, 4080, 4096
*Nset, nset=Fx0z, instance=PART-1-1
1, 2, 3, 4, 9, 10, 13, 14, 17, 18, 21, 22, 25, 26, 29, 30
33, 34, 37, 38, 41, 42, 45, 46, 49, 50, 53, 54, 57, 58, 61, 62
513, 514, 517, 519, 521, 523, 525, 527, 529, 531, 533, 535, 537, 539, 541, 543
769, 770, 773, 775, 777, 779, 781, 783, 785, 787, 789, 791, 793, 795, 797, 799
1025, 1026, 1029, 1031, 1033, 1035, 1037, 1039, 1041, 1043, 1045, 1047, 1049, 1051, 1053, 1055
1281, 1282, 1285, 1287, 1289, 1291, 1293, 1295, 1297, 1299, 1301, 1303, 1305, 1307, 1309, 1311
1537, 1538, 1541, 1543, 1545, 1547, 1549, 1551, 1553, 1555, 1557, 1559, 1561, 1563, 1565, 1567
1793, 1794, 1797, 1799, 1801, 1803, 1805, 1807, 1809, 1811, 1813, 1815, 1817, 1819, 1821, 1823
2049, 2050, 2053, 2055, 2057, 2059, 2061, 2063, 2065, 2067, 2069, 2071, 2073, 2075, 2077, 2079
2305, 2306, 2309, 2311, 2313, 2315, 2317, 2319, 2321, 2323, 2325, 2327, 2329, 2331, 2333, 2335
2561, 2562, 2565, 2567, 2569, 2571, 2573, 2575, 2577, 2579, 2581, 2583, 2585, 2587, 2589, 2591
2817, 2818, 2821, 2823, 2825, 2827, 2829, 2831, 2833, 2835, 2837, 2839, 2841, 2843, 2845, 2847
3073, 3074, 3077, 3079, 3081, 3083, 3085, 3087, 3089, 3091, 3093, 3095, 3097, 3099, 3101, 3103
3329, 3330, 3333, 3335, 3337, 3339, 3341, 3343, 3345, 3347, 3349, 3351, 3353, 3355, 3357, 3359
3585, 3586, 3589, 3591, 3593, 3595, 3597, 3599, 3601, 3603, 3605, 3607, 3609, 3611, 3613, 3615
3841, 3842, 3845, 3847, 3849, 3851, 3853, 3855, 3857, 3859, 3861, 3863, 3865, 3867, 3869, 3871
*Nset, nset=Fx1z, instance=PART-1-1
481, 482, 483, 484, 485, 486, 487, 488, 489, 490, 491, 492, 493, 494, 495, 496
497, 498, 499, 500, 501, 502, 503, 504, 505, 506, 507, 508, 509, 510, 511, 512
753, 754, 755, 756, 757, 758, 759, 760, 761, 762, 763, 764, 765, 766, 767, 768
1009, 1010, 1011, 1012, 1013, 1014, 1015, 1016, 1017, 1018, 1019, 1020, 1021, 1022, 1023, 1024
1265, 1266, 1267, 1268, 1269, 1270, 1271, 1272, 1273, 1274, 1275, 1276, 1277, 1278, 1279, 1280
1521, 1522, 1523, 1524, 1525, 1526, 1527, 1528, 1529, 1530, 1531, 1532, 1533, 1534, 1535, 1536
1777, 1778, 1779, 1780, 1781, 1782, 1783, 1784, 1785, 1786, 1787, 1788, 1789, 1790, 1791, 1792
2033, 2034, 2035, 2036, 2037, 2038, 2039, 2040, 2041, 2042, 2043, 2044, 2045, 2046, 2047, 2048
2289, 2290, 2291, 2292, 2293, 2294, 2295, 2296, 2297, 2298, 2299, 2300, 2301, 2302, 2303, 2304
2545, 2546, 2547, 2548, 2549, 2550, 2551, 2552, 2553, 2554, 2555, 2556, 2557, 2558, 2559, 2560
2801, 2802, 2803, 2804, 2805, 2806, 2807, 2808, 2809, 2810, 2811, 2812, 2813, 2814, 2815, 2816
3057, 3058, 3059, 3060, 3061, 3062, 3063, 3064, 3065, 3066, 3067, 3068, 3069, 3070, 3071, 3072
3313, 3314, 3315, 3316, 3317, 3318, 3319, 3320, 3321, 3322, 3323, 3324, 3325, 3326, 3327, 3328
3569, 3570, 3571, 3572, 3573, 3574, 3575, 3576, 3577, 3578, 3579, 3580, 3581, 3582, 3583, 3584
3825, 3826, 3827, 3828, 3829, 3830, 3831, 3832, 3833, 3834, 3835, 3836, 3837, 3838, 3839, 3840
4081, 4082, 4083, 4084, 4085, 4086, 4087, 4088, 4089, 4090, 4091, 4092, 4093, 4094, 4095, 4096
*Nset, nset=F0yz, instance=PART-1-1
3, 4, 7, 8, 10, 12, 14, 16, 18, 20, 22, 24, 26, 28, 30, 32
34, 36, 38, 40, 42, 44, 46, 48, 50, 52, 54, 56, 58, 60, 62, 64
67, 68, 70, 72, 74, 76, 78, 80, 82, 84, 86, 88, 90, 92, 94, 96
99, 100, 102, 104, 106, 108, 110, 112, 114, 116, 118, 120, 122, 124, 126, 128
131, 132, 134, 136, 138, 140, 142, 144, 146, 148, 150, 152, 154, 156, 158, 160
163, 164, 166, 168, 170, 172, 174, 176, 178, 180, 182, 184, 186, 188, 190, 192
195, 196, 198, 200, 202, 204, 206, 208, 210, 212, 214, 216, 218, 220, 222, 224
227, 228, 230, 232, 234, 236, 238, 240, 242, 244, 246, 248, 250, 252, 254, 256
259, 260, 262, 264, 266, 268, 270, 272, 274, 276, 278, 280, 282, 284, 286, 288
291, 292, 294, 296, 298, 300, 302, 304, 306, 308, 310, 312, 314, 316, 318, 320
323, 324, 326, 328, 330, 332, 334, 336, 338, 340, 342, 344, 346, 348, 350, 352
355, 356, 358, 360, 362, 364, 366, 368, 370, 372, 374, 376, 378, 380, 382, 384
387, 388, 390, 392, 394, 396, 398, 400, 402, 404, 406, 408, 410, 412, 414, 416
419, 420, 422, 424, 426, 428, 430, 432, 434, 436, 438, 440, 442, 444, 446, 448
451, 452, 454, 456, 458, 460, 462, 464, 466, 468, 470, 472, 474, 476, 478, 480
483, 484, 486, 488, 490, 492, 494, 496, 498, 500, 502, 504, 506, 508, 510, 512
*Nset, nset=F1yz, instance=PART-1-1
3841, 3842, 3843, 3844, 3845, 3846, 3847, 3848, 3849, 3850, 3851, 3852, 3853, 3854, 3855, 3856
3857, 3858, 3859, 3860, 3861, 3862, 3863, 3864, 3865, 3866, 3867, 3868, 3869, 3870, 3871, 3872
3873, 3874, 3875, 3876, 3877, 3878, 3879, 3880, 3881, 3882, 3883, 3884, 3885, 3886, 3887, 3888
3889, 3890, 3891, 3892, 3893, 3894, 3895, 3896, 3897, 3898, 3899, 3900, 3901, 3902, 3903, 3904
3905, 3906, 3907, 3908, 3909, 3910, 3911, 3912, 3913, 3914, 3915, 3916, 3917, 3918, 3919, 3920
3921, 3922, 3923, 3924, 3925, 3926, 3927, 3928, 3929, 3930, 3931, 3932, 3933, 3934, 3935, 3936
3937, 3938, 3939, 3940, 3941, 3942, 3943, 3944, 3945, 3946, 3947, 3948, 3949, 3950, 3951, 3952
3953, 3954, 3955, 3956, 3957, 3958, 3959, 3960, 3961, 3962, 3963, 3964, 3965, 3966, 3967, 3968
3969, 3970, 3971, 3972, 3973, 3974, 3975, 3976, 3977, 3978, 3979, 3980, 3981, 3982, 3983, 3984
3985, 3986, 3987, 3988, 3989, 3990, 3991, 3992, 3993, 3994, 3995, 3996, 3997, 3998, 3999, 4000
4001, 4002, 4003, 4004, 4005, 4006, 4007, 4008, 4009, 4010, 4011, 4012, 4013, 4014, 4015, 4016
4017, 4018, 4019, 4020, 4021, 4022, 4023, 4024, 4025, 4026, 4027, 4028, 4029, 4030, 4031, 4032
4033, 4034, 4035, 4036, 4037, 4038, 4039, 4040, 4041, 4042, 4043, 4044, 4045, 4046, 4047, 4048
4049, 4050, 4051, 4052, 4053, 4054, 4055, 4056, 4057, 4058, 4059, 4060, 4061, 4062, 4063, 4064
4065, 4066, 4067, 4068, 4069, 4070, 4071, 4072, 4073, 4074, 4075, 4076, 4077, 4078, 4079, 4080
4081, 4082, 4083, 4084, 4085, 4086, 4087, 4088, 4089, 4090, 4091, 4092, 4093, 4094, 4095, 4096
** 4. FACES_SETS
*ELSET, ELSET=_Surf-1_S3, internal, instance=PART-1-1
3151, 3152, 3153, 3154, 3155, 3156, 3157, 3158, 3159, 3160, 3161, 3162, 3163, 3164, 3165, 3166,
3167, 3168, 3169, 3170, 3171, 3172, 3173, 3174, 3175, 3176, 3177, 3178, 3179, 3180, 3181, 3182,
3183, 3184, 3185, 3186, 3187, 3188, 3189, 3190, 3191, 3192, 3193, 3194, 3195, 3196, 3197, 3198,
3199, 3200, 3201, 3202, 3203, 3204, 3205, 3206, 3207, 3208, 3209, 3210, 3211, 3212, 3213, 3214,
3215, 3216, 3217, 3218, 3219, 3220, 3221, 3222, 3223, 3224, 3225, 3226, 3227, 3228, 3229, 3230,
3231, 3232, 3233, 3234, 3235, 3236, 3237, 3238, 3239, 3240, 3241, 3242, 3243, 3244, 3245, 3246,
3247, 3248, 3249, 3250, 3251, 3252, 3253, 3254, 3255, 3256, 3257, 3258, 3259, 3260, 3261, 3262,
3263, 3264, 3265, 3266, 3267, 3268, 3269, 3270, 3271, 3272, 3273, 3274, 3275, 3276, 3277, 3278,
3279, 3280, 3281, 3282, 3283, 3284, 3285, 3286, 3287, 3288, 3289, 3290, 3291, 3292, 3293, 3294,
3295, 3296, 3297, 3298, 3299, 3300, 3301, 3302, 3303, 3304, 3305, 3306, 3307, 3308, 3309, 3310,
3311, 3312, 3313, 3314, 3315, 3316, 3317, 3318, 3319, 3320, 3321, 3322, 3323, 3324, 3325, 3326,
3327, 3328, 3329, 3330, 3331, 3332, 3333, 3334, 3335, 3336, 3337, 3338, 3339, 3340, 3341, 3342,
3343, 3344, 3345, 3346, 3347, 3348, 3349, 3350, 3351, 3352, 3353, 3354, 3355, 3356, 3357, 3358,
3359, 3360, 3361, 3362, 3363, 3364, 3365, 3366, 3367, 3368, 3369, 3370, 3371, 3372, 3373, 3374,
3375,
*Surface, type=ELEMENT, name=Surf-1
_Surf-1_S3, S3


*ELSET, ELSET=_Surf-2_S2, internal, instance=PART-1-1
211, 212, 213, 214, 215, 216, 217, 218, 219, 220, 221, 222, 223, 224, 225, 436,
437, 438, 439, 440, 441, 442, 443, 444, 445, 446, 447, 448, 449, 450, 661, 662,
663, 664, 665, 666, 667, 668, 669, 670, 671, 672, 673, 674, 675, 886, 887, 888,
889, 890, 891, 892, 893, 894, 895, 896, 897, 898, 899, 900, 1111, 1112, 1113, 1114,
1115, 1116, 1117, 1118, 1119, 1120, 1121, 1122, 1123, 1124, 1125, 1336, 1337, 1338, 1339, 1340,
1341, 1342, 1343, 1344, 1345, 1346, 1347, 1348, 1349, 1350, 1561, 1562, 1563, 1564, 1565, 1566,
1567, 1568, 1569, 1570, 1571, 1572, 1573, 1574, 1575, 1786, 1787, 1788, 1789, 1790, 1791, 1792,
1793, 1794, 1795, 1796, 1797, 1798, 1799, 1800, 2011, 2012, 2013, 2014, 2015, 2016, 2017, 2018,
2019, 2020, 2021, 2022, 2023, 2024, 2025, 2236, 2237, 2238, 2239, 2240, 2241, 2242, 2243, 2244,
2245, 2246, 2247, 2248, 2249, 2250, 2461, 2462, 2463, 2464, 2465, 2466, 2467, 2468, 2469, 2470,
2471, 2472, 2473, 2474, 2475, 2686, 2687, 2688, 2689, 2690, 2691, 2692, 2693, 2694, 2695, 2696,
2697, 2698, 2699, 2700, 2911, 2912, 2913, 2914, 2915, 2916, 2917, 2918, 2919, 2920, 2921, 2922,
2923, 2924, 2925, 3136, 3137, 3138, 3139, 3140, 3141, 3142, 3143, 3144, 3145, 3146, 3147, 3148,
3149, 3150, 3361, 3362, 3363, 3364, 3365, 3366, 3367, 3368, 3369, 3370, 3371, 3372, 3373, 3374,
3375,
*Surface, type=ELEMENT, name=Surf-2
_Surf-2_S2, S2


*ELSET, ELSET=_Surf-3_S6, internal, instance=PART-1-1
15, 30, 45, 60, 75, 90, 105, 120, 135, 150, 165, 180, 195, 210, 225, 240,
255, 270, 285, 300, 315, 330, 345, 360, 375, 390, 405, 420, 435, 450, 465, 480,
495, 510, 525, 540, 555, 570, 585, 600, 615, 630, 645, 660, 675, 690, 705, 720,
735, 750, 765, 780, 795, 810, 825, 840, 855, 870, 885, 900, 915, 930, 945, 960,
975, 990, 1005, 1020, 1035, 1050, 1065, 1080, 1095, 1110, 1125, 1140, 1155, 1170, 1185, 1200,
1215, 1230, 1245, 1260, 1275, 1290, 1305, 1320, 1335, 1350, 1365, 1380, 1395, 1410, 1425, 1440,
1455, 1470, 1485, 1500, 1515, 1530, 1545, 1560, 1575, 1590, 1605, 1620, 1635, 1650, 1665, 1680,
1695, 1710, 1725, 1740, 1755, 1770, 1785, 1800, 1815, 1830, 1845, 1860, 1875, 1890, 1905, 1920,
1935, 1950, 1965, 1980, 1995, 2010, 2025, 2040, 2055, 2070, 2085, 2100, 2115, 2130, 2145, 2160,
2175, 2190, 2205, 2220, 2235, 2250, 2265, 2280, 2295, 2310, 2325, 2340, 2355, 2370, 2385, 2400,
2415, 2430, 2445, 2460, 2475, 2490, 2505, 2520, 2535, 2550, 2565, 2580, 2595, 2610, 2625, 2640,
2655, 2670, 2685, 2700, 2715, 2730, 2745, 2760, 2775, 2790, 2805, 2820, 2835, 2850, 2865, 2880,
2895, 2910, 2925, 2940, 2955, 2970, 2985, 3000, 3015, 3030, 3045, 3060, 3075, 3090, 3105, 3120,
3135, 3150, 3165, 3180, 3195, 3210, 3225, 3240, 3255, 3270, 3285, 3300, 3315, 3330, 3345, 3360,
3375,
*Surface, type=ELEMENT, name=Surf-3
_Surf-3_S6, S6


**
*End Assembly
**
** MATERIALS
**
*Include, input=./demo_vox3375_gr6_pbc_strain_mat.inp
**
** BOUNDARY CONDITIONS
** 
*Boundary 
V001,1 
V001,2 
V001,3 
V101,2 
V000,1 
V011,3 
** 
** 
**
** STEP: Loading
**
*Step, name=Loading, nlgeom=YES, inc=500000, unsymm=YES, solver=ITERATIVE
*Static
0.001, 1., 1e-10, 0.01
**
**
*CONTROLS, PARAMETER=TIME INCREMENTATION
35, 50, 9, 50, 28, 5, 12, 45
**
*CONTROLS, PARAMETERS=LINE SEARCH
10
** Originally that was SOLVER CONTROL
*SOLVER CONTROL
1e-5,200,
** 
** BOUNDARY CONDITIONS
** 
** Displacements 
** 
** Name: Dis Type: Displacement BC
*Boundary 
V101, 1, 1, -0.001
** OUTPUT REQUESTS 
** 
*Restart, write, frequency=0 
** 
** FIELD OUTPUT: F-Output-1 
** 
*Output, field 
*Node Output 
CF, COORD, RF, U 
** 
** FIELD OUTPUT: F-Output-2 
** 
*Element Output, directions=YES 
LE, PE, PEEQ, S, SDEG, SDV 
*Output, history, frequency=0 
** 
** HISTORY OUTPUT: H-Output-1 
** 
*Output, history, variable=PRESELECT 
*End Step 
